.Version 8.0.7 of ABINIT

 ABINIT is a project of the Universite Catholique de Louvain,
 Corning Inc. and other collaborators, see ~abinit/doc/developers/contributors.txt .
 Please read ~abinit/doc/users/acknowledgments.html for suggested
 acknowledgments of the ABINIT effort.

.Starting date : Fri 27 Apr 2018.
- ( at 15h31 )

- input  file    -> Si_in.txt
- output file    -> Si_out.txt
- root for input  files -> Si_i
- root for output files -> Si_o

 DATASET    1 : space group R-3 m (#166); Bravais hR (rhombohedral)
     intxc =       0    ionmov =       0      iscf =       7    lmnmax =       2
     lnmax =       2     mgfft =      50  mpssoang =       3    mqgrid =    3001
     natom =       2  nloc_mem =       1    nspden =       1   nspinor =       1
    nsppol =       1      nsym =      12    n1xccc =    2501    ntypat =       1
    occopt =       1   xclevel =       1
-    mband =           5        mffmem =           1         mkmem =        2000
       mpw =        5203          nfft =      125000          nkpt =        2000
  Rough estimation (10% accuracy) of disk space for files :

[...]

 DATASET   25 : space group R-3 m (#166); Bravais hR (rhombohedral)
     intxc =       0    ionmov =       0      iscf =       7    lmnmax =       2
     lnmax =       2     mgfft =      50  mpssoang =       3    mqgrid =    3001
     natom =       2  nloc_mem =       1    nspden =       1   nspinor =       1
    nsppol =       1      nsym =      12    n1xccc =    2501    ntypat =       1
    occopt =       1   xclevel =       1
-    mband =           5        mffmem =           1         mkmem =        2000
       mpw =        5203          nfft =      125000          nkpt =        2000
  Rough estimation (10% accuracy) of disk space for files :

------------- Echo of variables that govern the present computation ------------
-
- outvars: echo of selected default values
-   iomode0 =  0 , fftalg0 =112 , wfoptalg0 =  0
-
- outvars: echo of global parameters not present in the input file
-  max_nthreads =    0
-
 -outvars: echo values of preprocessed input variables --------
            acell      1.0200645510E+01  1.0200645510E+01  1.0200645510E+01 Bohr
              amu      2.80855000E+01
           diemac      1.20000000E+01
          dilatmx      1.05000000E+00
             ecut      5.00000000E+01 Hartree
           ecutsm      5.00000000E-01 Hartree
-          fftalg         112
           irdwfk           1
           jdtset        1    2    3    4    5    6    7    8    9   10
                        11   12   13   14   15   16   17   18   19   20
                        21   22   23   24   25
              kpt     -5.00000000E-02 -1.00000000E-01  0.00000000E+00
                      -1.00000000E-01 -5.00000000E-02  0.00000000E+00
                      -5.00000000E-02 -5.00000000E-02  5.00000000E-02
                      -5.00000000E-02 -2.00000000E-01  0.00000000E+00
                      -1.00000000E-01 -1.50000000E-01  0.00000000E+00
                      -5.00000000E-02 -1.50000000E-01  5.00000000E-02
                      -1.50000000E-01 -1.00000000E-01  0.00000000E+00
                      -1.00000000E-01 -1.00000000E-01  5.00000000E-02
                      -5.00000000E-02 -1.00000000E-01  1.00000000E-01
                      -2.00000000E-01 -5.00000000E-02  0.00000000E+00
                      -1.50000000E-01 -5.00000000E-02  5.00000000E-02
                      -1.00000000E-01 -5.00000000E-02  1.00000000E-01
                      -5.00000000E-02 -5.00000000E-02  1.50000000E-01
                      -5.00000000E-02 -3.00000000E-01  0.00000000E+00
                      -1.00000000E-01 -2.50000000E-01  0.00000000E+00
                      -5.00000000E-02 -2.50000000E-01  5.00000000E-02
                      -1.50000000E-01 -2.00000000E-01  0.00000000E+00
                      -1.00000000E-01 -2.00000000E-01  5.00000000E-02
                      -5.00000000E-02 -2.00000000E-01  1.00000000E-01
                      -2.00000000E-01 -1.50000000E-01  0.00000000E+00
                      -1.50000000E-01 -1.50000000E-01  5.00000000E-02
                      -1.00000000E-01 -1.50000000E-01  1.00000000E-01
                      -5.00000000E-02 -1.50000000E-01  1.50000000E-01
                      -2.50000000E-01 -1.00000000E-01  0.00000000E+00
                      -2.00000000E-01 -1.00000000E-01  5.00000000E-02
                      -1.50000000E-01 -1.00000000E-01  1.00000000E-01
                      -1.00000000E-01 -1.00000000E-01  1.50000000E-01
                      -5.00000000E-02 -1.00000000E-01  2.00000000E-01
                      -3.00000000E-01 -5.00000000E-02  0.00000000E+00
                      -2.50000000E-01 -5.00000000E-02  5.00000000E-02
                      -2.00000000E-01 -5.00000000E-02  1.00000000E-01
                      -1.50000000E-01 -5.00000000E-02  1.50000000E-01
                      -1.00000000E-01 -5.00000000E-02  2.00000000E-01
                      -5.00000000E-02 -5.00000000E-02  2.50000000E-01
                      -5.00000000E-02 -4.00000000E-01  0.00000000E+00
                      -1.00000000E-01 -3.50000000E-01  0.00000000E+00
                      -5.00000000E-02 -3.50000000E-01  5.00000000E-02
                      -1.50000000E-01 -3.00000000E-01  0.00000000E+00
                      -1.00000000E-01 -3.00000000E-01  5.00000000E-02
                      -5.00000000E-02 -3.00000000E-01  1.00000000E-01
                      -2.00000000E-01 -2.50000000E-01  0.00000000E+00
                      -1.50000000E-01 -2.50000000E-01  5.00000000E-02
                      -1.00000000E-01 -2.50000000E-01  1.00000000E-01
                      -5.00000000E-02 -2.50000000E-01  1.50000000E-01
                      -2.50000000E-01 -2.00000000E-01  0.00000000E+00
                      -2.00000000E-01 -2.00000000E-01  5.00000000E-02
                      -1.50000000E-01 -2.00000000E-01  1.00000000E-01
                      -1.00000000E-01 -2.00000000E-01  1.50000000E-01
                      -5.00000000E-02 -2.00000000E-01  2.00000000E-01
                      -3.00000000E-01 -1.50000000E-01  0.00000000E+00
                       outvar_i_n : Printing only first  50 k-points.
           kptopt           2
         kptrlatt       10  -10   10    -10   10   10    -10  -10   10
          kptrlen      1.02006455E+02
P           mkmem        2000
            natom           2
            nband           5
           ndtset          25
            ngfft          50      50      50
             nkpt        2000
            nstep          10
             nsym          12
            ntime          10
           ntypat           1
              occ      2.000000  2.000000  2.000000  2.000000  0.000000
            rprim      0.0000000000E+00  5.0000000000E-01  5.0000000000E-01
                       5.0000000000E-01  0.0000000000E+00  5.0000000000E-01
                       5.0000000000E-01  5.0000000000E-01  0.0000000000E+00
           shiftk      5.00000000E-01  5.00000000E-01  5.00000000E-01
          spgroup         166
           symrel      1  0  0   0  1  0   0  0  1      -1  0  0   0 -1  0   0  0 -1
                       1  0  0   0  0  1   0  1  0      -1  0  0   0  0 -1   0 -1  0
                       0  1  0   0  0  1   1  0  0       0 -1  0   0  0 -1  -1  0  0
                       0  1  0   1  0  0   0  0  1       0 -1  0  -1  0  0   0  0 -1
                       0  0  1   1  0  0   0  1  0       0  0 -1  -1  0  0   0 -1  0
                       0  0  1   0  1  0   1  0  0       0  0 -1   0 -1  0  -1  0  0
            tnons      0.0000000  0.0000000  0.0000000     0.2500000  0.2500000  0.2500000
                       0.0000000  0.0000000  0.0000000     0.2500000  0.2500000  0.2500000
                       0.0000000  0.0000000  0.0000000     0.2500000  0.2500000  0.2500000
                       0.0000000  0.0000000  0.0000000     0.2500000  0.2500000  0.2500000
                       0.0000000  0.0000000  0.0000000     0.2500000  0.2500000  0.2500000
                       0.0000000  0.0000000  0.0000000     0.2500000  0.2500000  0.2500000
           toldfe      1.00000000E-06 Hartree
            typat      1  1
              wtk        0.00050    0.00050    0.00050    0.00050    0.00050    0.00050
                         0.00050    0.00050    0.00050    0.00050    0.00050    0.00050
                         0.00050    0.00050    0.00050    0.00050    0.00050    0.00050
                         0.00050    0.00050    0.00050    0.00050    0.00050    0.00050
                         0.00050    0.00050    0.00050    0.00050    0.00050    0.00050
                         0.00050    0.00050    0.00050    0.00050    0.00050    0.00050
                         0.00050    0.00050    0.00050    0.00050    0.00050    0.00050
                         0.00050    0.00050    0.00050    0.00050    0.00050    0.00050
                         0.00050    0.00050
                       outvars : Printing only first  50 k-points.
           xangst1     5.3979491168E-03  5.3979491168E-03  5.3979491168E-03
                       1.3440893301E+00  1.3440893301E+00  1.3440893301E+00
           xangst2     1.0795898234E-02  1.0795898234E-02  1.0795898234E-02
                       1.3386913810E+00  1.3386913810E+00  1.3386913810E+00
           xangst3     1.6193847350E-02  1.6193847350E-02  1.6193847350E-02
                       1.3332934318E+00  1.3332934318E+00  1.3332934318E+00
           xangst4     2.1591796467E-02  2.1591796467E-02  2.1591796467E-02
                       1.3278954827E+00  1.3278954827E+00  1.3278954827E+00
           xangst5     2.6989745584E-02  2.6989745584E-02  2.6989745584E-02
                       1.3224975336E+00  1.3224975336E+00  1.3224975336E+00
           xangst6     3.2387694701E-02  3.2387694701E-02  3.2387694701E-02
                       1.3170995845E+00  1.3170995845E+00  1.3170995845E+00
           xangst7     3.7785643818E-02  3.7785643818E-02  3.7785643818E-02
                       1.3117016354E+00  1.3117016354E+00  1.3117016354E+00
           xangst8     4.3183592934E-02  4.3183592934E-02  4.3183592934E-02
                       1.3063036863E+00  1.3063036863E+00  1.3063036863E+00
           xangst9     4.8581542051E-02  4.8581542051E-02  4.8581542051E-02
                       1.3009057371E+00  1.3009057371E+00  1.3009057371E+00
           xangst10    5.3979491168E-02  5.3979491168E-02  5.3979491168E-02
                       1.2955077880E+00  1.2955077880E+00  1.2955077880E+00
           xangst11    5.9377440285E-02  5.9377440285E-02  5.9377440285E-02
                       1.2901098389E+00  1.2901098389E+00  1.2901098389E+00
           xangst12    6.4775389402E-02  6.4775389402E-02  6.4775389402E-02
                       1.2847118898E+00  1.2847118898E+00  1.2847118898E+00
           xangst13    7.0173338518E-02  7.0173338518E-02  7.0173338518E-02
                       1.2793139407E+00  1.2793139407E+00  1.2793139407E+00
           xangst14    7.5571287635E-02  7.5571287635E-02  7.5571287635E-02
                       1.2739159916E+00  1.2739159916E+00  1.2739159916E+00
[...]
           strten5    -1.2717863832E-05 -1.2717863832E-05 -1.2717863832E-05
                      -8.4954661472E-05 -8.4954661472E-05 -8.4954661472E-05
           strten6    -1.8814981204E-05 -1.8814981204E-05 -1.8814981204E-05
                      -1.0451047698E-04 -1.0451047698E-04 -1.0451047698E-04
           strten7    -2.6304228986E-05 -2.6304228986E-05 -2.6304228986E-05
                      -1.2503990377E-04 -1.2503990377E-04 -1.2503990377E-04
           strten8    -3.5280787916E-05 -3.5280787916E-05 -3.5280787916E-05
                      -1.4660255138E-04 -1.4660255138E-04 -1.4660255138E-04
           strten9    -4.5842557294E-05 -4.5842557294E-05 -4.5842557294E-05
                      -1.6926568254E-04 -1.6926568254E-04 -1.6926568254E-04
           strten10   -5.8090446689E-05 -5.8090446689E-05 -5.8090446689E-05
                      -1.9309909713E-04 -1.9309909713E-04 -1.9309909713E-04
           strten11   -7.2135138464E-05 -7.2135138464E-05 -7.2135138464E-05
                      -2.1815811536E-04 -2.1815811536E-04 -2.1815811536E-04
           strten12   -8.8072397628E-05 -8.8072397628E-05 -8.8072397628E-05
                      -2.4456841668E-04 -2.4456841668E-04 -2.4456841668E-04
           strten13   -1.0601768498E-04 -1.0601768498E-04 -1.0601768498E-04
                      -2.7239625162E-04 -2.7239625162E-04 -2.7239625162E-04
           strten14   -1.2608438389E-04 -1.2608438389E-04 -1.2608438389E-04
                      -3.0173407914E-04 -3.0173407914E-04 -3.0173407914E-04
           strten15   -1.4838882217E-04 -1.4838882217E-04 -1.4838882217E-04
                      -3.3267969140E-04 -3.3267969140E-04 -3.3267969140E-04
           strten16   -1.7305024900E-04 -1.7305024900E-04 -1.7305024900E-04
                      -3.6533630263E-04 -3.6533630263E-04 -3.6533630263E-04
           strten17   -2.0019091927E-04 -2.0019091927E-04 -2.0019091927E-04
                      -3.9981086663E-04 -3.9981086663E-04 -3.9981086663E-04
           strten18   -2.2993573489E-04 -2.2993573489E-04 -2.2993573489E-04
                      -4.3621499146E-04 -4.3621499146E-04 -4.3621499146E-04
           strten19   -2.6241204802E-04 -2.6241204802E-04 -2.6241204802E-04
                      -4.7466390239E-04 -4.7466390239E-04 -4.7466390239E-04
           strten20   -2.9774977786E-04 -2.9774977786E-04 -2.9774977786E-04
                      -5.1527487073E-04 -5.1527487073E-04 -5.1527487073E-04
           strten21   -3.3608120635E-04 -3.3608120635E-04 -3.3608120635E-04
                      -5.5817333042E-04 -5.5817333042E-04 -5.5817333042E-04
           strten22   -3.7753966478E-04 -3.7753966478E-04 -3.7753966478E-04
                      -6.0348157192E-04 -6.0348157192E-04 -6.0348157192E-04
           strten23   -4.2226253238E-04 -4.2226253238E-04 -4.2226253238E-04
                      -6.5133071301E-04 -6.5133071301E-04 -6.5133071301E-04
           strten24   -4.7038949652E-04 -4.7038949652E-04 -4.7038949652E-04
                      -7.0181912169E-04 -7.0181912169E-04 -7.0181912169E-04
           strten25   -5.2206570808E-04 -5.2206570808E-04 -5.2206570808E-04
                      -7.5494477830E-04 -7.5494477830E-04 -7.5494477830E-04
           symrel      1  0  0   0  1  0   0  0  1      -1  0  0   0 -1  0   0  0 -1
                       1  0  0   0  0  1   0  1  0      -1  0  0   0  0 -1   0 -1  0
                       0  1  0   0  0  1   1  0  0       0 -1  0   0  0 -1  -1  0  0
                       0  1  0   1  0  0   0  0  1       0 -1  0  -1  0  0   0  0 -1
                       0  0  1   1  0  0   0  1  0       0  0 -1  -1  0  0   0 -1  0
                       0  0  1   0  1  0   1  0  0       0  0 -1   0 -1  0  -1  0  0
            tnons      0.0000000  0.0000000  0.0000000     0.2500000  0.2500000  0.2500000
                       0.0000000  0.0000000  0.0000000     0.2500000  0.2500000  0.2500000
                       0.0000000  0.0000000  0.0000000     0.2500000  0.2500000  0.2500000
                       0.0000000  0.0000000  0.0000000     0.2500000  0.2500000  0.2500000
                       0.0000000  0.0000000  0.0000000     0.2500000  0.2500000  0.2500000
                       0.0000000  0.0000000  0.0000000     0.2500000  0.2500000  0.2500000
           toldfe      1.00000000E-06 Hartree
            typat      1  1
              wtk        0.00050    0.00050    0.00050    0.00050    0.00050    0.00050
                         0.00050    0.00050    0.00050    0.00050    0.00050    0.00050
                         0.00050    0.00050    0.00050    0.00050    0.00050    0.00050
                         0.00050    0.00050    0.00050    0.00050    0.00050    0.00050
                         0.00050    0.00050    0.00050    0.00050    0.00050    0.00050
                         0.00050    0.00050    0.00050    0.00050    0.00050    0.00050
                         0.00050    0.00050    0.00050    0.00050    0.00050    0.00050
                         0.00050    0.00050    0.00050    0.00050    0.00050    0.00050
                         0.00050    0.00050
                       outvars : Printing only first  50 k-points.
           xangst1     5.3979491168E-03  5.3979491168E-03  5.3979491168E-03
                       1.3440893301E+00  1.3440893301E+00  1.3440893301E+00
           xangst2     1.0795898234E-02  1.0795898234E-02  1.0795898234E-02
                       1.3386913810E+00  1.3386913810E+00  1.3386913810E+00
           xangst3     1.6193847350E-02  1.6193847350E-02  1.6193847350E-02
                       1.3332934318E+00  1.3332934318E+00  1.3332934318E+00
           xangst4     2.1591796467E-02  2.1591796467E-02  2.1591796467E-02
                       1.3278954827E+00  1.3278954827E+00  1.3278954827E+00
           xangst5     2.6989745584E-02  2.6989745584E-02  2.6989745584E-02
                       1.3224975336E+00  1.3224975336E+00  1.3224975336E+00
           xangst6     3.2387694701E-02  3.2387694701E-02  3.2387694701E-02
                       1.3170995845E+00  1.3170995845E+00  1.3170995845E+00
           xangst7     3.7785643818E-02  3.7785643818E-02  3.7785643818E-02
                       1.3117016354E+00  1.3117016354E+00  1.3117016354E+00
           xangst8     4.3183592934E-02  4.3183592934E-02  4.3183592934E-02
                       1.3063036863E+00  1.3063036863E+00  1.3063036863E+00
           xangst9     4.8581542051E-02  4.8581542051E-02  4.8581542051E-02
                       1.3009057371E+00  1.3009057371E+00  1.3009057371E+00
           xangst10    5.3979491168E-02  5.3979491168E-02  5.3979491168E-02
                       1.2955077880E+00  1.2955077880E+00  1.2955077880E+00
           xangst11    5.9377440285E-02  5.9377440285E-02  5.9377440285E-02
                       1.2901098389E+00  1.2901098389E+00  1.2901098389E+00
           xangst12    6.4775389402E-02  6.4775389402E-02  6.4775389402E-02
                       1.2847118898E+00  1.2847118898E+00  1.2847118898E+00
           xangst13    7.0173338518E-02  7.0173338518E-02  7.0173338518E-02
                       1.2793139407E+00  1.2793139407E+00  1.2793139407E+00
           xangst14    7.5571287635E-02  7.5571287635E-02  7.5571287635E-02
                       1.2739159916E+00  1.2739159916E+00  1.2739159916E+00
           xangst15    8.0969236752E-02  8.0969236752E-02  8.0969236752E-02
                       1.2685180424E+00  1.2685180424E+00  1.2685180424E+00
           xangst16    8.6367185869E-02  8.6367185869E-02  8.6367185869E-02
                       1.2631200933E+00  1.2631200933E+00  1.2631200933E+00
           xangst17    9.1765134986E-02  9.1765134986E-02  9.1765134986E-02
                       1.2577221442E+00  1.2577221442E+00  1.2577221442E+00
           xangst18    9.7163084102E-02  9.7163084102E-02  9.7163084102E-02
                       1.2523241951E+00  1.2523241951E+00  1.2523241951E+00
           xangst19    1.0256103322E-01  1.0256103322E-01  1.0256103322E-01
                       1.2469262460E+00  1.2469262460E+00  1.2469262460E+00
           xangst20    1.0795898234E-01  1.0795898234E-01  1.0795898234E-01
                       1.2415282969E+00  1.2415282969E+00  1.2415282969E+00
           xangst21    1.1335693145E-01  1.1335693145E-01  1.1335693145E-01
                       1.2361303477E+00  1.2361303477E+00  1.2361303477E+00
           xangst22    1.1875488057E-01  1.1875488057E-01  1.1875488057E-01
                       1.2307323986E+00  1.2307323986E+00  1.2307323986E+00
           xangst23    1.2415282969E-01  1.2415282969E-01  1.2415282969E-01
                       1.2253344495E+00  1.2253344495E+00  1.2253344495E+00
           xangst24    1.2955077880E-01  1.2955077880E-01  1.2955077880E-01
                       1.2199365004E+00  1.2199365004E+00  1.2199365004E+00
           xangst25    1.3494872792E-01  1.3494872792E-01  1.3494872792E-01
                       1.2145385513E+00  1.2145385513E+00  1.2145385513E+00
            xcart1     1.0200645510E-02  1.0200645510E-02  1.0200645510E-02
                       2.5399607320E+00  2.5399607320E+00  2.5399607320E+00
            xcart2     2.0401291020E-02  2.0401291020E-02  2.0401291020E-02
                       2.5297600865E+00  2.5297600865E+00  2.5297600865E+00
            xcart3     3.0601936530E-02  3.0601936530E-02  3.0601936530E-02
                       2.5195594410E+00  2.5195594410E+00  2.5195594410E+00
            xcart4     4.0802582040E-02  4.0802582040E-02  4.0802582040E-02
                       2.5093587955E+00  2.5093587955E+00  2.5093587955E+00
            xcart5     5.1003227550E-02  5.1003227550E-02  5.1003227550E-02
                       2.4991581499E+00  2.4991581499E+00  2.4991581499E+00
            xcart6     6.1203873060E-02  6.1203873060E-02  6.1203873060E-02
                       2.4889575044E+00  2.4889575044E+00  2.4889575044E+00
            xcart7     7.1404518570E-02  7.1404518570E-02  7.1404518570E-02
                       2.4787568589E+00  2.4787568589E+00  2.4787568589E+00
            xcart8     8.1605164080E-02  8.1605164080E-02  8.1605164080E-02
                       2.4685562134E+00  2.4685562134E+00  2.4685562134E+00
            xcart9     9.1805809590E-02  9.1805809590E-02  9.1805809590E-02
                       2.4583555679E+00  2.4583555679E+00  2.4583555679E+00
            xcart10    1.0200645510E-01  1.0200645510E-01  1.0200645510E-01
                       2.4481549224E+00  2.4481549224E+00  2.4481549224E+00
            xcart11    1.1220710061E-01  1.1220710061E-01  1.1220710061E-01
                       2.4379542769E+00  2.4379542769E+00  2.4379542769E+00
            xcart12    1.2240774612E-01  1.2240774612E-01  1.2240774612E-01
                       2.4277536314E+00  2.4277536314E+00  2.4277536314E+00
            xcart13    1.3260839163E-01  1.3260839163E-01  1.3260839163E-01
                       2.4175529859E+00  2.4175529859E+00  2.4175529859E+00
            xcart14    1.4280903714E-01  1.4280903714E-01  1.4280903714E-01
                       2.4073523404E+00  2.4073523404E+00  2.4073523404E+00
            xcart15    1.5300968265E-01  1.5300968265E-01  1.5300968265E-01
                       2.3971516948E+00  2.3971516948E+00  2.3971516948E+00
            xcart16    1.6321032816E-01  1.6321032816E-01  1.6321032816E-01
                       2.3869510493E+00  2.3869510493E+00  2.3869510493E+00
            xcart17    1.7341097367E-01  1.7341097367E-01  1.7341097367E-01
                       2.3767504038E+00  2.3767504038E+00  2.3767504038E+00
            xcart18    1.8361161918E-01  1.8361161918E-01  1.8361161918E-01
                       2.3665497583E+00  2.3665497583E+00  2.3665497583E+00
            xcart19    1.9381226469E-01  1.9381226469E-01  1.9381226469E-01
                       2.3563491128E+00  2.3563491128E+00  2.3563491128E+00
            xcart20    2.0401291020E-01  2.0401291020E-01  2.0401291020E-01
                       2.3461484673E+00  2.3461484673E+00  2.3461484673E+00
            xcart21    2.1421355571E-01  2.1421355571E-01  2.1421355571E-01
                       2.3359478218E+00  2.3359478218E+00  2.3359478218E+00
            xcart22    2.2441420122E-01  2.2441420122E-01  2.2441420122E-01
                       2.3257471763E+00  2.3257471763E+00  2.3257471763E+00
            xcart23    2.3461484673E-01  2.3461484673E-01  2.3461484673E-01
                       2.3155465308E+00  2.3155465308E+00  2.3155465308E+00
            xcart24    2.4481549224E-01  2.4481549224E-01  2.4481549224E-01
                       2.3053458853E+00  2.3053458853E+00  2.3053458853E+00
            xcart25    2.5501613775E-01  2.5501613775E-01  2.5501613775E-01
                       2.2951452398E+00  2.2951452398E+00  2.2951452398E+00
             xred1     1.0000000000E-03  1.0000000000E-03  1.0000000000E-03
                       2.4900000000E-01  2.4900000000E-01  2.4900000000E-01
             xred2     2.0000000000E-03  2.0000000000E-03  2.0000000000E-03
                       2.4800000000E-01  2.4800000000E-01  2.4800000000E-01
             xred3     3.0000000000E-03  3.0000000000E-03  3.0000000000E-03
                       2.4700000000E-01  2.4700000000E-01  2.4700000000E-01
             xred4     4.0000000000E-03  4.0000000000E-03  4.0000000000E-03
                       2.4600000000E-01  2.4600000000E-01  2.4600000000E-01
             xred5     5.0000000000E-03  5.0000000000E-03  5.0000000000E-03
                       2.4500000000E-01  2.4500000000E-01  2.4500000000E-01
             xred6     6.0000000000E-03  6.0000000000E-03  6.0000000000E-03
                       2.4400000000E-01  2.4400000000E-01  2.4400000000E-01
             xred7     7.0000000000E-03  7.0000000000E-03  7.0000000000E-03
                       2.4300000000E-01  2.4300000000E-01  2.4300000000E-01
             xred8     8.0000000000E-03  8.0000000000E-03  8.0000000000E-03
                       2.4200000000E-01  2.4200000000E-01  2.4200000000E-01
             xred9     9.0000000000E-03  9.0000000000E-03  9.0000000000E-03
                       2.4100000000E-01  2.4100000000E-01  2.4100000000E-01
             xred10    1.0000000000E-02  1.0000000000E-02  1.0000000000E-02
                       2.4000000000E-01  2.4000000000E-01  2.4000000000E-01
             xred11    1.1000000000E-02  1.1000000000E-02  1.1000000000E-02
                       2.3900000000E-01  2.3900000000E-01  2.3900000000E-01
             xred12    1.2000000000E-02  1.2000000000E-02  1.2000000000E-02
                       2.3800000000E-01  2.3800000000E-01  2.3800000000E-01
             xred13    1.3000000000E-02  1.3000000000E-02  1.3000000000E-02
                       2.3700000000E-01  2.3700000000E-01  2.3700000000E-01
             xred14    1.4000000000E-02  1.4000000000E-02  1.4000000000E-02
                       2.3600000000E-01  2.3600000000E-01  2.3600000000E-01
             xred15    1.5000000000E-02  1.5000000000E-02  1.5000000000E-02
                       2.3500000000E-01  2.3500000000E-01  2.3500000000E-01
             xred16    1.6000000000E-02  1.6000000000E-02  1.6000000000E-02
                       2.3400000000E-01  2.3400000000E-01  2.3400000000E-01
             xred17    1.7000000000E-02  1.7000000000E-02  1.7000000000E-02
                       2.3300000000E-01  2.3300000000E-01  2.3300000000E-01
             xred18    1.8000000000E-02  1.8000000000E-02  1.8000000000E-02
                       2.3200000000E-01  2.3200000000E-01  2.3200000000E-01
             xred19    1.9000000000E-02  1.9000000000E-02  1.9000000000E-02
                       2.3100000000E-01  2.3100000000E-01  2.3100000000E-01
             xred20    2.0000000000E-02  2.0000000000E-02  2.0000000000E-02
                       2.3000000000E-01  2.3000000000E-01  2.3000000000E-01
             xred21    2.1000000000E-02  2.1000000000E-02  2.1000000000E-02
                       2.2900000000E-01  2.2900000000E-01  2.2900000000E-01
             xred22    2.2000000000E-02  2.2000000000E-02  2.2000000000E-02
                       2.2800000000E-01  2.2800000000E-01  2.2800000000E-01
             xred23    2.3000000000E-02  2.3000000000E-02  2.3000000000E-02
                       2.2700000000E-01  2.2700000000E-01  2.2700000000E-01
             xred24    2.4000000000E-02  2.4000000000E-02  2.4000000000E-02
                       2.2600000000E-01  2.2600000000E-01  2.2600000000E-01
             xred25    2.5000000000E-02  2.5000000000E-02  2.5000000000E-02
                       2.2500000000E-01  2.2500000000E-01  2.2500000000E-01
            znucl       14.00000

- Timing analysis has been suppressed with timopt=0

 Suggested references for the acknowledgment of ABINIT usage.

 Calculation completed.
.Delivered 250 WARNINGs and  25 COMMENTs to log file.