.Version 8.0.7 of ABINIT

 ABINIT is a project of the Universite Catholique de Louvain,
 Corning Inc. and other collaborators, see ~abinit/doc/developers/contributors.txt .
 Please read ~abinit/doc/users/acknowledgments.html for suggested
 acknowledgments of the ABINIT effort.

.Starting date : Thu 26 Apr 2018.
- ( at 11h53 )

 === Build Information ===
  Version       : 8.0.7
  Build target  : x86_64_linux_gnu4.9
  Build date    : 20160627

 === Optimizations ===
  Debug level        : basic
  Optimization level : standard
  Architecture       : intel_xeon

 === Multicore ===
  Parallel build : yes
  Parallel I/O   : auto
  openMP support : no
  GPU support    : no

 === Connectors / Fallbacks ===
  Connectors on : yes
  Fallbacks on  : yes
  DFT flavor    : none
  FFT flavor    : none
  LINALG flavor : netlib-fallback
  MATH flavor   : none
  TIMER flavor  : abinit
  TRIO flavor   : none

 === Experimental features ===
  Bindings            : @enable_bindings@
  Exports             : no
  GW double-precision : no

 Default optimizations:
   -O2 -mtune=native -march=native

 Optimizations for 20_datashare:
   -O0

 CPP options activated during the build:

                    CC_GNU                   CXX_GNU                    FC_GNU

 HAVE_FC_ALLOCATABLE_DT...             HAVE_FC_ASYNC         HAVE_FC_BACKTRACE

  HAVE_FC_COMMAND_ARGUMENT      HAVE_FC_COMMAND_LINE        HAVE_FC_CONTIGUOUS

           HAVE_FC_CPUTIME              HAVE_FC_EXIT             HAVE_FC_FLUSH

             HAVE_FC_GAMMA            HAVE_FC_GETENV          HAVE_FC_INT_QUAD

             HAVE_FC_IOMSG     HAVE_FC_ISO_C_BINDING  HAVE_FC_ISO_FORTRAN_2008

        HAVE_FC_LONG_LINES        HAVE_FC_MOVE_ALLOC           HAVE_FC_PRIVATE

         HAVE_FC_PROTECTED         HAVE_FC_STREAM_IO            HAVE_FC_SYSTEM

          HAVE_FORTRAN2003        HAVE_LIBPAW_ABINIT      HAVE_LIBTETRA_ABINIT

                  HAVE_MPI                 HAVE_MPI1               HAVE_MPI_IO

 HAVE_MPI_TYPE_CREATE_S...                HAVE_NUMPY             HAVE_OS_LINUX

                HAVE_TIMER         HAVE_TIMER_ABINIT            HAVE_TIMER_MPI

         HAVE_TIMER_SERIAL              USE_MACROAVE

- input  file    -> Si_in.txt
- output file    -> Si_out.txt
- root for input  files -> Si_i
- root for output files -> Si_o

-instrng: 69 lines of input have been read from file Si_in.txt

  status : statnu, output_rate, shift_rate=           1           0           1
 level,routine=           3 init istatr
 active(level)=           1
 counter,actual_counter(level,1:2)=           0           0           0
 List of active levels :
  Active level number=           3

 Please give name of formatted atomic psp file
 iofn2 : for atom type 1, psp file is 14si.txt
  read the values zionpsp=  4.0 , pspcod=   1 , lmax=   2

 inpspheads: deduce mpsang = 3, n1xccc = 2501.

 invars1m : enter jdtset= 1
 invars1 : treat image number: 1

 symlatt : the Bravais lattice is cF (face-centered cubic)
  xred   is defined in input file
 ingeo : takes atomic coordinates from input array xred

 symlatt : the Bravais lattice is cF (face-centered cubic)

 symlatt : the Bravais lattice is cF (face-centered cubic)
 symspgr : spgroup= 227  Fd -3 m   (=Oh^7)
 ingeo : angdeg(1:3)=   60.00000000   60.00000000   60.00000000
       Simple Lattice Grid

[...]

 symlatt : the Bravais lattice is cF (face-centered cubic)
 symspgr : spgroup= 227  Fd -3 m   (=Oh^7)
 ingeo : angdeg(1:3)=   60.00000000   60.00000000   60.00000000
       Simple Lattice Grid

 invars1m : enter jdtset= 5
 invars1 : treat image number: 1

 symlatt : the Bravais lattice is cF (face-centered cubic)
  xred   is defined in input file
 ingeo : takes atomic coordinates from input array xred

 symlatt : the Bravais lattice is cF (face-centered cubic)

 symlatt : the Bravais lattice is cF (face-centered cubic)
 symspgr : spgroup= 227  Fd -3 m   (=Oh^7)
 ingeo : angdeg(1:3)=   60.00000000   60.00000000   60.00000000
       Simple Lattice Grid
 invars2: take the default value of fband=  1.25000000E-01
       Simple Lattice Grid

 invars2 : Printing the k point grid (values of kptns - max 100 of them)
 nkpt=       2
     ikpt istwfk    wtk       --------- reduced coordinates ---------  --------- cartesian coordinates ---------
       1     1  7.500000E-01 -2.500000E-01  5.000000E-01  0.000000E+00  7.367387E-02 -7.367387E-02  2.455796E-02
       2     1  2.500000E-01 -2.500000E-01  0.000000E+00  0.000000E+00  2.455796E-02 -2.455796E-02 -2.455796E-02

 invars2 : Printing the k point grid from kptrlatt, shifted with shiftk and qptn, in the full Brillouin zone.
   Maximum 100 of them. No use of symmetries
 nkpt_fullbz=      32
     ikpt      --------------- reduced coordinates ---------------  --------- cartesian coordinates ---------
       1      -2.5000000000E-01  5.0000000000E-01  0.0000000000E+00  7.367387E-02 -7.367387E-02  2.455796E-02
       2       5.0000000000E-01 -2.5000000000E-01  0.0000000000E+00 -7.367387E-02  7.367387E-02  2.455796E-02
       3      -2.5000000000E-01 -2.5000000000E-01  2.5000000000E-01  2.455796E-02  2.455796E-02 -7.367387E-02
       4      -2.5000000000E-01  0.0000000000E+00  0.0000000000E+00  2.455796E-02 -2.455796E-02 -2.455796E-02
       5       5.0000000000E-01  2.5000000000E-01  0.0000000000E+00 -2.455796E-02  2.455796E-02  7.367387E-02
       6      -2.5000000000E-01  2.5000000000E-01  2.5000000000E-01  7.367387E-02 -2.455796E-02 -2.455796E-02
       7       2.5000000000E-01  5.0000000000E-01  0.0000000000E+00  2.455796E-02 -2.455796E-02  7.367387E-02
       8       5.0000000000E-01  5.0000000000E-01  2.5000000000E-01  2.455796E-02  2.455796E-02  7.367387E-02
       9      -2.5000000000E-01  5.0000000000E-01  5.0000000000E-01  1.227898E-01 -2.455796E-02 -2.455796E-02
      10       0.0000000000E+00 -2.5000000000E-01  0.0000000000E+00 -2.455796E-02  2.455796E-02 -2.455796E-02
      11       2.5000000000E-01 -2.5000000000E-01  2.5000000000E-01 -2.455796E-02  7.367387E-02 -2.455796E-02
      12       5.0000000000E-01 -2.5000000000E-01  5.0000000000E-01 -2.455796E-02  1.227898E-01 -2.455796E-02
      13      -2.5000000000E-01 -2.5000000000E-01 -2.5000000000E-01 -2.455796E-02 -2.455796E-02 -2.455796E-02
      14       2.5000000000E-01  0.0000000000E+00  0.0000000000E+00 -2.455796E-02  2.455796E-02  2.455796E-02
      15       5.0000000000E-01  0.0000000000E+00  2.5000000000E-01 -2.455796E-02  7.367387E-02  2.455796E-02
      16      -2.5000000000E-01  0.0000000000E+00  5.0000000000E-01  7.367387E-02  2.455796E-02 -7.367387E-02
      17       0.0000000000E+00  2.5000000000E-01  0.0000000000E+00  2.455796E-02 -2.455796E-02  2.455796E-02
      18       2.5000000000E-01  2.5000000000E-01  2.5000000000E-01  2.455796E-02  2.455796E-02  2.455796E-02
      19       5.0000000000E-01  2.5000000000E-01  5.0000000000E-01  2.455796E-02  7.367387E-02  2.455796E-02
      20      -2.5000000000E-01  2.5000000000E-01 -2.5000000000E-01  2.455796E-02 -7.367387E-02  2.455796E-02
      21       0.0000000000E+00  5.0000000000E-01  2.5000000000E-01  7.367387E-02 -2.455796E-02  2.455796E-02
      22       2.5000000000E-01  5.0000000000E-01  5.0000000000E-01  7.367387E-02  2.455796E-02  2.455796E-02
      23       5.0000000000E-01  5.0000000000E-01 -2.5000000000E-01 -2.455796E-02 -2.455796E-02  1.227898E-01
      24       0.0000000000E+00 -2.5000000000E-01  5.0000000000E-01  2.455796E-02  7.367387E-02 -7.367387E-02
      25       2.5000000000E-01 -2.5000000000E-01 -2.5000000000E-01 -7.367387E-02  2.455796E-02  2.455796E-02
      26       0.0000000000E+00  0.0000000000E+00  2.5000000000E-01  2.455796E-02  2.455796E-02 -2.455796E-02
      27       2.5000000000E-01  0.0000000000E+00  5.0000000000E-01  2.455796E-02  7.367387E-02 -2.455796E-02
      28       5.0000000000E-01  0.0000000000E+00 -2.5000000000E-01 -7.367387E-02  2.455796E-02  7.367387E-02
      29       0.0000000000E+00  2.5000000000E-01  5.0000000000E-01  7.367387E-02  2.455796E-02 -2.455796E-02
      30       2.5000000000E-01  2.5000000000E-01 -2.5000000000E-01 -2.455796E-02 -2.455796E-02  7.367387E-02
      31       0.0000000000E+00  5.0000000000E-01 -2.5000000000E-01  2.455796E-02 -7.367387E-02  7.367387E-02
      32       0.0000000000E+00  0.0000000000E+00 -2.5000000000E-01 -2.455796E-02 -2.455796E-02  2.455796E-02

  chkneu : enter, dtset%nelect=   8.0000000000000000
  occopt,dtset%nsppol,dtset%nspden=           1           1           1
  maxocc,nocc,occlast=   2.0000000000000000                4   2.0000000000000000
 chkneu : initialized the occupation numbers for occopt=    1, spin-unpolarized or antiferromagnetic case :
  2.00  2.00  2.00  2.00  0.00
 invars2: take the default value of fband=  1.25000000E-01
       Simple Lattice Grid

[...]

  chkneu : enter, dtset%nelect=   8.0000000000000000
  occopt,dtset%nsppol,dtset%nspden=           1           1           1
  maxocc,nocc,occlast=   2.0000000000000000                4   2.0000000000000000
 chkneu : initialized the occupation numbers for occopt=    1, spin-unpolarized or antiferromagnetic case :
  2.00  2.00  2.00  2.00  0.00
 invars2: take the default value of fband=  1.25000000E-01
       Simple Lattice Grid

 invars2 : Printing the k point grid (values of kptns - max 100 of them)
 nkpt=     182
     ikpt istwfk    wtk       --------- reduced coordinates ---------  --------- cartesian coordinates ---------
       1     1  3.472222E-03 -4.166667E-02 -8.333333E-02  0.000000E+00 -4.092993E-03  4.092993E-03 -1.227898E-02
       2     1  3.472222E-03 -4.166667E-02 -1.666667E-01  0.000000E+00 -1.227898E-02  1.227898E-02 -2.046496E-02
       3     1  3.472222E-03 -8.333333E-02 -1.250000E-01  0.000000E+00 -4.092993E-03  4.092993E-03 -2.046496E-02
       4     1  6.944444E-03 -4.166667E-02 -1.250000E-01  4.166667E-02 -4.092993E-03  1.227898E-02 -2.046496E-02
       5     1  3.472222E-03 -4.166667E-02 -2.500000E-01  0.000000E+00 -2.046496E-02  2.046496E-02 -2.865095E-02
       6     1  3.472222E-03 -8.333333E-02 -2.083333E-01  0.000000E+00 -1.227898E-02  1.227898E-02 -2.865095E-02
       7     1  6.944444E-03 -4.166667E-02 -2.083333E-01  4.166667E-02 -1.227898E-02  2.046496E-02 -2.865095E-02
       8     1  3.472222E-03 -1.250000E-01 -1.666667E-01  0.000000E+00 -4.092993E-03  4.092993E-03 -2.865095E-02
       9     1  6.944444E-03 -8.333333E-02 -1.666667E-01  4.166667E-02 -4.092993E-03  1.227898E-02 -2.865095E-02
      10     1  6.944444E-03 -4.166667E-02 -1.666667E-01  8.333333E-02 -4.092993E-03  2.046496E-02 -2.865095E-02
      11     1  3.472222E-03 -4.166667E-02 -3.333333E-01  0.000000E+00 -2.865095E-02  2.865095E-02 -3.683694E-02
      12     1  3.472222E-03 -8.333333E-02 -2.916667E-01  0.000000E+00 -2.046496E-02  2.046496E-02 -3.683694E-02
      13     1  6.944444E-03 -4.166667E-02 -2.916667E-01  4.166667E-02 -2.046496E-02  2.865095E-02 -3.683694E-02
      14     1  3.472222E-03 -1.250000E-01 -2.500000E-01  0.000000E+00 -1.227898E-02  1.227898E-02 -3.683694E-02
      15     1  6.944444E-03 -8.333333E-02 -2.500000E-01  4.166667E-02 -1.227898E-02  2.046496E-02 -3.683694E-02
      16     1  6.944444E-03 -4.166667E-02 -2.500000E-01  8.333333E-02 -1.227898E-02  2.865095E-02 -3.683694E-02
[...]
                      -1.00000000E-01 -3.00000000E-01  1.50000000E-01
                      -5.00000000E-02 -3.00000000E-01  2.00000000E-01
                      -5.00000000E-02  4.00000000E-01  0.00000000E+00
                      -1.00000000E-01  4.50000000E-01  0.00000000E+00
                      -1.50000000E-01  5.00000000E-01  0.00000000E+00
                      -1.00000000E-01  5.00000000E-01  5.00000000E-02
                      -2.00000000E-01 -4.50000000E-01  0.00000000E+00
                      -1.50000000E-01 -4.50000000E-01  5.00000000E-02
                      -1.00000000E-01 -4.50000000E-01  1.00000000E-01
                      -5.00000000E-02 -4.50000000E-01  1.50000000E-01
                      -2.50000000E-01 -4.00000000E-01  0.00000000E+00
                      -2.00000000E-01 -4.00000000E-01  5.00000000E-02
                      -1.50000000E-01 -4.00000000E-01  1.00000000E-01
                      -1.00000000E-01 -4.00000000E-01  1.50000000E-01
                      -5.00000000E-02 -4.00000000E-01  2.00000000E-01
                      -3.00000000E-01 -3.50000000E-01  0.00000000E+00
                      -2.50000000E-01 -3.50000000E-01  5.00000000E-02
              kpt5    -4.16666667E-02 -8.33333333E-02  0.00000000E+00
                      -4.16666667E-02 -1.66666667E-01  0.00000000E+00
                      -8.33333333E-02 -1.25000000E-01  0.00000000E+00
                      -4.16666667E-02 -1.25000000E-01  4.16666667E-02
                      -4.16666667E-02 -2.50000000E-01  0.00000000E+00
                      -8.33333333E-02 -2.08333333E-01  0.00000000E+00
                      -4.16666667E-02 -2.08333333E-01  4.16666667E-02
                      -1.25000000E-01 -1.66666667E-01  0.00000000E+00
                      -8.33333333E-02 -1.66666667E-01  4.16666667E-02
                      -4.16666667E-02 -1.66666667E-01  8.33333333E-02
                      -4.16666667E-02 -3.33333333E-01  0.00000000E+00
                      -8.33333333E-02 -2.91666667E-01  0.00000000E+00
                      -4.16666667E-02 -2.91666667E-01  4.16666667E-02
                      -1.25000000E-01 -2.50000000E-01  0.00000000E+00
                      -8.33333333E-02 -2.50000000E-01  4.16666667E-02
                      -4.16666667E-02 -2.50000000E-01  8.33333333E-02
                      -1.66666667E-01 -2.08333333E-01  0.00000000E+00
                      -1.25000000E-01 -2.08333333E-01  4.16666667E-02
                      -8.33333333E-02 -2.08333333E-01  8.33333333E-02
                      -4.16666667E-02 -2.08333333E-01  1.25000000E-01
                      -4.16666667E-02 -4.16666667E-01  0.00000000E+00
                      -8.33333333E-02 -3.75000000E-01  0.00000000E+00
                      -4.16666667E-02 -3.75000000E-01  4.16666667E-02
                      -1.25000000E-01 -3.33333333E-01  0.00000000E+00
                      -8.33333333E-02 -3.33333333E-01  4.16666667E-02
                      -4.16666667E-02 -3.33333333E-01  8.33333333E-02
                      -1.66666667E-01 -2.91666667E-01  0.00000000E+00
                      -1.25000000E-01 -2.91666667E-01  4.16666667E-02
                      -8.33333333E-02 -2.91666667E-01  8.33333333E-02
                      -4.16666667E-02 -2.91666667E-01  1.25000000E-01
                      -2.08333333E-01 -2.50000000E-01  0.00000000E+00
                      -1.66666667E-01 -2.50000000E-01  4.16666667E-02
                      -1.25000000E-01 -2.50000000E-01  8.33333333E-02
                      -8.33333333E-02 -2.50000000E-01  1.25000000E-01
                      -4.16666667E-02 -2.50000000E-01  1.66666667E-01
                      -4.16666667E-02  5.00000000E-01  0.00000000E+00
                      -8.33333333E-02 -4.58333333E-01  0.00000000E+00
                      -4.16666667E-02 -4.58333333E-01  4.16666667E-02
                      -1.25000000E-01 -4.16666667E-01  0.00000000E+00
                      -8.33333333E-02 -4.16666667E-01  4.16666667E-02
                      -4.16666667E-02 -4.16666667E-01  8.33333333E-02
                      -1.66666667E-01 -3.75000000E-01  0.00000000E+00
                      -1.25000000E-01 -3.75000000E-01  4.16666667E-02
                      -8.33333333E-02 -3.75000000E-01  8.33333333E-02
                      -4.16666667E-02 -3.75000000E-01  1.25000000E-01
                      -2.08333333E-01 -3.33333333E-01  0.00000000E+00
                      -1.66666667E-01 -3.33333333E-01  4.16666667E-02
                      -1.25000000E-01 -3.33333333E-01  8.33333333E-02
                      -8.33333333E-02 -3.33333333E-01  1.25000000E-01
                      -4.16666667E-02 -3.33333333E-01  1.66666667E-01
                       outvar_i_n : Printing only first  50 k-points.
         kptrlatt1       2   -2    2     -2    2    2     -2   -2    2
         kptrlatt2       6   -6    6     -6    6    6     -6   -6    6
         kptrlatt3       8   -8    8     -8    8    8     -8   -8    8
         kptrlatt4      10  -10   10    -10   10   10    -10  -10   10
         kptrlatt5      12  -12   12    -12   12   12    -12  -12   12
          kptrlen1     2.03600000E+01
          kptrlen2     6.10800000E+01
          kptrlen3     8.14400000E+01
          kptrlen4     1.01800000E+02
          kptrlen5     1.22160000E+02
P           mkmem1          2
P           mkmem2         28
P           mkmem3         60
P           mkmem4        110
P           mkmem5        182
            natom           2
            nband1          5
            nband2          5
            nband3          5
            nband4          5
            nband5          5
           ndtset           5
            ngfft          50      50      50
             nkpt1          2
             nkpt2         28
             nkpt3         60
             nkpt4        110
             nkpt5        182
            nstep          10
             nsym          48
            ntime          10
           ntypat           1
              occ1     2.000000  2.000000  2.000000  2.000000  0.000000
              occ2     2.000000  2.000000  2.000000  2.000000  0.000000
              occ3     2.000000  2.000000  2.000000  2.000000  0.000000
              occ4     2.000000  2.000000  2.000000  2.000000  0.000000
              occ5     2.000000  2.000000  2.000000  2.000000  0.000000
          optcell           1
            rprim      0.0000000000E+00  5.0000000000E-01  5.0000000000E-01
                       5.0000000000E-01  0.0000000000E+00  5.0000000000E-01
                       5.0000000000E-01  5.0000000000E-01  0.0000000000E+00
           shiftk      5.00000000E-01  5.00000000E-01  5.00000000E-01
          spgroup         227
           strten1    -1.0270388690E-08 -1.0270388690E-08 -1.0270388690E-08
                       0.0000000000E+00  0.0000000000E+00  0.0000000000E+00
           strten2    -4.5617549902E-07 -4.5617549902E-07 -4.5617549902E-07
                       0.0000000000E+00  0.0000000000E+00  0.0000000000E+00
           strten3    -3.7943094474E-07 -3.7943094474E-07 -3.7943094474E-07
                       0.0000000000E+00  0.0000000000E+00  0.0000000000E+00
           strten4    -3.8592019726E-07 -3.8592019726E-07 -3.8592019726E-07
                       0.0000000000E+00  0.0000000000E+00  0.0000000000E+00
           strten5    -3.7472719122E-07 -3.7472719122E-07 -3.7472719122E-07
                       0.0000000000E+00  0.0000000000E+00  0.0000000000E+00
           symrel      1  0  0   0  1  0   0  0  1      -1  0  0   0 -1  0   0  0 -1
                       0 -1  1   0 -1  0   1 -1  0       0  1 -1   0  1  0  -1  1  0
                      -1  0  0  -1  0  1  -1  1  0       1  0  0   1  0 -1   1 -1  0
                       0  1 -1   1  0 -1   0  0 -1       0 -1  1  -1  0  1   0  0  1
                      -1  0  0  -1  1  0  -1  0  1       1  0  0   1 -1  0   1  0 -1
                       0 -1  1   1 -1  0   0 -1  0       0  1 -1  -1  1  0   0  1  0
                       1  0  0   0  0  1   0  1  0      -1  0  0   0  0 -1   0 -1  0
                       0  1 -1   0  0 -1   1  0 -1       0 -1  1   0  0  1  -1  0  1
                      -1  0  1  -1  1  0  -1  0  0       1  0 -1   1 -1  0   1  0  0
                       0 -1  0   1 -1  0   0 -1  1       0  1  0  -1  1  0   0  1 -1
                       1  0 -1   0  0 -1   0  1 -1      -1  0  1   0  0  1   0 -1  1
                       0  1  0   0  0  1   1  0  0       0 -1  0   0  0 -1  -1  0  0
                       1  0 -1   0  1 -1   0  0 -1      -1  0  1   0 -1  1   0  0  1
                       0 -1  0   0 -1  1   1 -1  0       0  1  0   0  1 -1  -1  1  0
                      -1  0  1  -1  0  0  -1  1  0       1  0 -1   1  0  0   1 -1  0
                       0  1  0   1  0  0   0  0  1       0 -1  0  -1  0  0   0  0 -1
                       0  0 -1   0  1 -1   1  0 -1       0  0  1   0 -1  1  -1  0  1
                       1 -1  0   0 -1  1   0 -1  0      -1  1  0   0  1 -1   0  1  0
                       0  0  1   1  0  0   0  1  0       0  0 -1  -1  0  0   0 -1  0
                      -1  1  0  -1  0  0  -1  0  1       1 -1  0   1  0  0   1  0 -1
                       0  0  1   0  1  0   1  0  0       0  0 -1   0 -1  0  -1  0  0
                       1 -1  0   0 -1  0   0 -1  1      -1  1  0   0  1  0   0  1 -1
                       0  0 -1   1  0 -1   0  1 -1       0  0  1  -1  0  1   0 -1  1
                      -1  1  0  -1  0  1  -1  0  0       1 -1  0   1  0 -1   1  0  0
            tnons      0.0000000  0.0000000  0.0000000     0.2500000  0.2500000  0.2500000
                       0.0000000  0.0000000  0.0000000     0.2500000  0.2500000  0.2500000
                       0.0000000  0.0000000  0.0000000     0.2500000  0.2500000  0.2500000
                       0.0000000  0.0000000  0.0000000     0.2500000  0.2500000  0.2500000
                       0.0000000  0.0000000  0.0000000     0.2500000  0.2500000  0.2500000
                       0.0000000  0.0000000  0.0000000     0.2500000  0.2500000  0.2500000
                       0.0000000  0.0000000  0.0000000     0.2500000  0.2500000  0.2500000
                       0.0000000  0.0000000  0.0000000     0.2500000  0.2500000  0.2500000
                       0.0000000  0.0000000  0.0000000     0.2500000  0.2500000  0.2500000
                       0.0000000  0.0000000  0.0000000     0.2500000  0.2500000  0.2500000
                       0.0000000  0.0000000  0.0000000     0.2500000  0.2500000  0.2500000
                       0.0000000  0.0000000  0.0000000     0.2500000  0.2500000  0.2500000
                       0.0000000  0.0000000  0.0000000     0.2500000  0.2500000  0.2500000
                       0.0000000  0.0000000  0.0000000     0.2500000  0.2500000  0.2500000
                       0.0000000  0.0000000  0.0000000     0.2500000  0.2500000  0.2500000
                       0.0000000  0.0000000  0.0000000     0.2500000  0.2500000  0.2500000
                       0.0000000  0.0000000  0.0000000     0.2500000  0.2500000  0.2500000
                       0.0000000  0.0000000  0.0000000     0.2500000  0.2500000  0.2500000
                       0.0000000  0.0000000  0.0000000     0.2500000  0.2500000  0.2500000
                       0.0000000  0.0000000  0.0000000     0.2500000  0.2500000  0.2500000
                       0.0000000  0.0000000  0.0000000     0.2500000  0.2500000  0.2500000
                       0.0000000  0.0000000  0.0000000     0.2500000  0.2500000  0.2500000
                       0.0000000  0.0000000  0.0000000     0.2500000  0.2500000  0.2500000
                       0.0000000  0.0000000  0.0000000     0.2500000  0.2500000  0.2500000
           toldfe      1.00000000E-06 Hartree
            typat      1  1
              wtk1       0.75000    0.25000
              wtk2       0.02778    0.02778    0.02778    0.05556    0.02778    0.02778
                         0.05556    0.02778    0.05556    0.05556    0.02778    0.02778
                         0.02778    0.05556    0.02778    0.05556    0.05556    0.05556
                         0.02778    0.02778    0.02778    0.02778    0.02778    0.05556
                         0.05556    0.00926    0.00926    0.00926
              wtk3       0.01172    0.01172    0.01172    0.02344    0.01172    0.01172
                         0.02344    0.01172    0.02344    0.02344    0.01172    0.01172
                         0.02344    0.01172    0.02344    0.02344    0.01172    0.02344
                         0.02344    0.02344    0.01172    0.01172    0.01172    0.02344
                         0.01172    0.02344    0.02344    0.02344    0.01172    0.02344
                         0.02344    0.02344    0.02344    0.01172    0.01172    0.01172
                         0.01172    0.01172    0.02344    0.02344    0.01172    0.02344
                         0.02344    0.02344    0.02344    0.02344    0.01172    0.01172
                         0.01172    0.01172
              wtk4       0.00600    0.00600    0.00600    0.01200    0.00600    0.00600
                         0.01200    0.00600    0.01200    0.01200    0.00600    0.00600
                         0.01200    0.00600    0.01200    0.01200    0.00600    0.01200
                         0.01200    0.01200    0.00600    0.00600    0.01200    0.00600
                         0.01200    0.01200    0.00600    0.01200    0.01200    0.01200
                         0.00600    0.01200    0.01200    0.01200    0.01200    0.00600
                         0.00600    0.00600    0.01200    0.00600    0.01200    0.01200
                         0.01200    0.00600    0.01200    0.01200    0.01200    0.01200
                         0.00600    0.01200
              wtk5       0.00347    0.00347    0.00347    0.00694    0.00347    0.00347
                         0.00694    0.00347    0.00694    0.00694    0.00347    0.00347
                         0.00694    0.00347    0.00694    0.00694    0.00347    0.00694
                         0.00694    0.00694    0.00347    0.00347    0.00694    0.00347
                         0.00694    0.00694    0.00347    0.00694    0.00694    0.00694
                         0.00347    0.00694    0.00694    0.00694    0.00694    0.00347
                         0.00347    0.00694    0.00347    0.00694    0.00694    0.00347
                         0.00694    0.00694    0.00694    0.00347    0.00694    0.00694
                         0.00694    0.00694
                       outvars : Printing only first  50 k-points.
           xangst1     9.0978802060E-32  9.0978802060E-32 -9.0974103524E-32
                       1.3512813407E+00  1.3512813407E+00  1.3512813407E+00
           xangst2     0.0000000000E+00  0.0000000000E+00  0.0000000000E+00
                       1.3494175618E+00  1.3494175618E+00  1.3494175618E+00
           xangst3     3.4189807076E-32 -1.1499060898E-31  1.9693207913E-31
                       1.3494344420E+00  1.3494344420E+00  1.3494344420E+00
           xangst4     0.0000000000E+00  0.0000000000E+00  0.0000000000E+00
                       1.3494343105E+00  1.3494343105E+00  1.3494343105E+00
           xangst5     0.0000000000E+00  0.0000000000E+00  0.0000000000E+00
                       1.3494359292E+00  1.3494359292E+00  1.3494359292E+00
            xcart1     1.7192501979E-31  1.7192501979E-31 -1.7191614085E-31
                       2.5535516625E+00  2.5535516625E+00  2.5535516625E+00
            xcart2     0.0000000000E+00  0.0000000000E+00  0.0000000000E+00
                       2.5500296308E+00  2.5500296308E+00  2.5500296308E+00
            xcart3     6.4609371910E-32 -2.1730075882E-31  3.7214769634E-31
                       2.5500615297E+00  2.5500615297E+00  2.5500615297E+00
            xcart4     0.0000000000E+00  0.0000000000E+00  0.0000000000E+00
                       2.5500612812E+00  2.5500612812E+00  2.5500612812E+00
            xcart5     0.0000000000E+00  0.0000000000E+00  0.0000000000E+00
                       2.5500643400E+00  2.5500643400E+00  2.5500643400E+00
             xred     -1.6831081134E-32 -1.6831081134E-32  5.0494981951E-32
                       2.5000000000E-01  2.5000000000E-01  2.5000000000E-01
            znucl       14.00000

 Suggested references for the acknowledgment of ABINIT usage.

 Calculation completed.
.Delivered  12 WARNINGs and   0 COMMENTs to log file.

--- !FinalSummary
program: abinit
version: 8.0.7
start_datetime: Thu Apr 26 11:53:16 2018
end_datetime: Thu Apr 26 12:06:28 2018
overall_cpu_time:         784.0
overall_wall_time:         790.8
exit_requested_by_user: no
timelimit: 0
pseudos:
    Si  : 3916b143991b1cfa1542b130be320e5e
usepaw: 0
mpi_procs: 1
omp_threads: 1
num_warnings: 12
num_comments: 0
...