.Version 8.0.7 of ABINIT

 ABINIT is a project of the Universite Catholique de Louvain,
 Corning Inc. and other collaborators, see ~abinit/doc/developers/contributors.txt .
 Please read ~abinit/doc/users/acknowledgments.html for suggested
 acknowledgments of the ABINIT effort.

.Starting date : Thu 26 Apr 2018.
- ( at 11h40 )

- input  file    -> Si_in.txt
- output file    -> Si_out.txt
- root for input  files -> Si_i
- root for output files -> Si_o

 DATASET    1 : space group Fd -3 m (#227); Bravais cF (face-center cubic)
     intxc =       0    ionmov =       3      iscf =       7    lmnmax =       2
     lnmax =       2     mgfft =      20  mpssoang =       3    mqgrid =    3001
     natom =       2  nloc_mem =       1    nspden =       1   nspinor =       1
    nsppol =       1      nsym =      48    n1xccc =    2501    ntypat =       1
    occopt =       1   xclevel =       1
-    mband =           5        mffmem =           1         mkmem =         110
       mpw =         336          nfft =        8000          nkpt =         110
  Rough estimation (10% accuracy) of disk space for files :

[...]

 DATASET   22 : space group Fd -3 m (#227); Bravais cF (face-center cubic)
     intxc =       0    ionmov =       3      iscf =       7    lmnmax =       2
     lnmax =       2     mgfft =      50  mpssoang =       3    mqgrid =    3001
     natom =       2  nloc_mem =       1    nspden =       1   nspinor =       1
    nsppol =       1      nsym =      48    n1xccc =    2501    ntypat =       1
    occopt =       1   xclevel =       1
-    mband =           5        mffmem =           1         mkmem =         110
       mpw =        5173          nfft =      125000          nkpt =         110
  Rough estimation (10% accuracy) of disk space for files :

------------- Echo of variables that govern the present computation ------------
-
- outvars: echo of selected default values
-   iomode0 =  0 , fftalg0 =112 , wfoptalg0 =  0
-
- outvars: echo of global parameters not present in the input file
-  max_nthreads =    0
-
 -outvars: echo values of preprocessed input variables --------
            acell      1.0180000000E+01  1.0180000000E+01  1.0180000000E+01 Bohr
              amu      2.80855000E+01
           diemac      1.20000000E+01
          dilatmx      1.05000000E+00
             ecut1     8.00000000E+00 Hartree
             ecut2     1.00000000E+01 Hartree
             ecut3     1.20000000E+01 Hartree
             ecut4     1.40000000E+01 Hartree
             ecut5     1.60000000E+01 Hartree
             ecut6     1.80000000E+01 Hartree
             ecut7     2.00000000E+01 Hartree
             ecut8     2.20000000E+01 Hartree
             ecut9     2.40000000E+01 Hartree
             ecut10    2.60000000E+01 Hartree
             ecut11    2.80000000E+01 Hartree
             ecut12    3.00000000E+01 Hartree
             ecut13    3.20000000E+01 Hartree
             ecut14    3.40000000E+01 Hartree
             ecut15    3.60000000E+01 Hartree
             ecut16    3.80000000E+01 Hartree
             ecut17    4.00000000E+01 Hartree
             ecut18    4.20000000E+01 Hartree
             ecut19    4.40000000E+01 Hartree
             ecut20    4.60000000E+01 Hartree
             ecut21    4.80000000E+01 Hartree
             ecut22    5.00000000E+01 Hartree
           ecutsm      5.00000000E-01 Hartree
-          fftalg         112
           getwfk          -1
           ionmov           3
           jdtset        1    2    3    4    5    6    7    8    9   10
                        11   12   13   14   15   16   17   18   19   20
                        21   22
              kpt     -5.00000000E-02 -1.00000000E-01  0.00000000E+00
                      -5.00000000E-02 -2.00000000E-01  0.00000000E+00
                      -1.00000000E-01 -1.50000000E-01  0.00000000E+00
                      -5.00000000E-02 -1.50000000E-01  5.00000000E-02
                      -5.00000000E-02 -3.00000000E-01  0.00000000E+00
                      -1.00000000E-01 -2.50000000E-01  0.00000000E+00
                      -5.00000000E-02 -2.50000000E-01  5.00000000E-02
                      -1.50000000E-01 -2.00000000E-01  0.00000000E+00
                      -1.00000000E-01 -2.00000000E-01  5.00000000E-02
                      -5.00000000E-02 -2.00000000E-01  1.00000000E-01
                      -5.00000000E-02 -4.00000000E-01  0.00000000E+00
                      -1.00000000E-01 -3.50000000E-01  0.00000000E+00
                      -5.00000000E-02 -3.50000000E-01  5.00000000E-02
                      -1.50000000E-01 -3.00000000E-01  0.00000000E+00
                      -1.00000000E-01 -3.00000000E-01  5.00000000E-02
                      -5.00000000E-02 -3.00000000E-01  1.00000000E-01
                      -2.00000000E-01 -2.50000000E-01  0.00000000E+00
                      -1.50000000E-01 -2.50000000E-01  5.00000000E-02
                      -1.00000000E-01 -2.50000000E-01  1.00000000E-01
                      -5.00000000E-02 -2.50000000E-01  1.50000000E-01
                      -5.00000000E-02  5.00000000E-01  0.00000000E+00
                      -1.00000000E-01 -4.50000000E-01  0.00000000E+00
                      -5.00000000E-02 -4.50000000E-01  5.00000000E-02
                      -1.50000000E-01 -4.00000000E-01  0.00000000E+00
                      -1.00000000E-01 -4.00000000E-01  5.00000000E-02
                      -5.00000000E-02 -4.00000000E-01  1.00000000E-01
                      -2.00000000E-01 -3.50000000E-01  0.00000000E+00
                      -1.50000000E-01 -3.50000000E-01  5.00000000E-02
                      -1.00000000E-01 -3.50000000E-01  1.00000000E-01
                      -5.00000000E-02 -3.50000000E-01  1.50000000E-01
                      -2.50000000E-01 -3.00000000E-01  0.00000000E+00
                      -2.00000000E-01 -3.00000000E-01  5.00000000E-02
                      -1.50000000E-01 -3.00000000E-01  1.00000000E-01
                      -1.00000000E-01 -3.00000000E-01  1.50000000E-01
                      -5.00000000E-02 -3.00000000E-01  2.00000000E-01
                      -5.00000000E-02  4.00000000E-01  0.00000000E+00
                      -1.00000000E-01  4.50000000E-01  0.00000000E+00
                      -1.50000000E-01  5.00000000E-01  0.00000000E+00
                      -1.00000000E-01  5.00000000E-01  5.00000000E-02
                      -2.00000000E-01 -4.50000000E-01  0.00000000E+00
                      -1.50000000E-01 -4.50000000E-01  5.00000000E-02
                      -1.00000000E-01 -4.50000000E-01  1.00000000E-01
                      -5.00000000E-02 -4.50000000E-01  1.50000000E-01
                      -2.50000000E-01 -4.00000000E-01  0.00000000E+00
                      -2.00000000E-01 -4.00000000E-01  5.00000000E-02
                      -1.50000000E-01 -4.00000000E-01  1.00000000E-01
                      -1.00000000E-01 -4.00000000E-01  1.50000000E-01
                      -5.00000000E-02 -4.00000000E-01  2.00000000E-01
                      -3.00000000E-01 -3.50000000E-01  0.00000000E+00
                      -2.50000000E-01 -3.50000000E-01  5.00000000E-02
                       outvar_i_n : Printing only first  50 k-points.
         kptrlatt       10  -10   10    -10   10   10    -10  -10   10
          kptrlen      1.01800000E+02
P           mkmem         110
            natom           2
            nband           5
           ndtset          22
            ngfft1         20      20      20
            ngfft2         24      24      24
            ngfft3         24      24      24
            ngfft4         27      27      27
            ngfft5         30      30      30
            ngfft6         30      30      30
            ngfft7         32      32      32
            ngfft8         32      32      32
            ngfft9         36      36      36
            ngfft10        36      36      36
            ngfft11        40      40      40
            ngfft12        40      40      40
            ngfft13        40      40      40
            ngfft14        40      40      40
            ngfft15        45      45      45
            ngfft16        45      45      45
            ngfft17        45      45      45
            ngfft18        48      48      48
            ngfft19        48      48      48
            ngfft20        48      48      48
            ngfft21        48      48      48
            ngfft22        50      50      50
             nkpt         110
            nstep          10
             nsym          48
            ntime          10
           ntypat           1
              occ      2.000000  2.000000  2.000000  2.000000  0.000000
          optcell           1
            rprim      0.0000000000E+00  5.0000000000E-01  5.0000000000E-01
                       5.0000000000E-01  0.0000000000E+00  5.0000000000E-01
                       5.0000000000E-01  5.0000000000E-01  0.0000000000E+00
           shiftk      5.00000000E-01  5.00000000E-01  5.00000000E-01
          spgroup         227
           symrel      1  0  0   0  1  0   0  0  1      -1  0  0   0 -1  0   0  0 -1
                       0 -1  1   0 -1  0   1 -1  0       0  1 -1   0  1  0  -1  1  0
                      -1  0  0  -1  0  1  -1  1  0       1  0  0   1  0 -1   1 -1  0
                       0  1 -1   1  0 -1   0  0 -1       0 -1  1  -1  0  1   0  0  1
                      -1  0  0  -1  1  0  -1  0  1       1  0  0   1 -1  0   1  0 -1
                       0 -1  1   1 -1  0   0 -1  0       0  1 -1  -1  1  0   0  1  0
                       1  0  0   0  0  1   0  1  0      -1  0  0   0  0 -1   0 -1  0
                       0  1 -1   0  0 -1   1  0 -1       0 -1  1   0  0  1  -1  0  1
                      -1  0  1  -1  1  0  -1  0  0       1  0 -1   1 -1  0   1  0  0
                       0 -1  0   1 -1  0   0 -1  1       0  1  0  -1  1  0   0  1 -1
                       1  0 -1   0  0 -1   0  1 -1      -1  0  1   0  0  1   0 -1  1
                       0  1  0   0  0  1   1  0  0       0 -1  0   0  0 -1  -1  0  0
                       1  0 -1   0  1 -1   0  0 -1      -1  0  1   0 -1  1   0  0  1
                       0 -1  0   0 -1  1   1 -1  0       0  1  0   0  1 -1  -1  1  0
                      -1  0  1  -1  0  0  -1  1  0       1  0 -1   1  0  0   1 -1  0
                       0  1  0   1  0  0   0  0  1       0 -1  0  -1  0  0   0  0 -1
                       0  0 -1   0  1 -1   1  0 -1       0  0  1   0 -1  1  -1  0  1
                       1 -1  0   0 -1  1   0 -1  0      -1  1  0   0  1 -1   0  1  0
                       0  0  1   1  0  0   0  1  0       0  0 -1  -1  0  0   0 -1  0
                      -1  1  0  -1  0  0  -1  0  1       1 -1  0   1  0  0   1  0 -1
                       0  0  1   0  1  0   1  0  0       0  0 -1   0 -1  0  -1  0  0
                       1 -1  0   0 -1  0   0 -1  1      -1  1  0   0  1  0   0  1 -1
                       0  0 -1   1  0 -1   0  1 -1       0  0  1  -1  0  1   0 -1  1
                      -1  1  0  -1  0  1  -1  0  0       1 -1  0   1  0 -1   1  0  0
            tnons      0.0000000  0.0000000  0.0000000     0.2500000  0.2500000  0.2500000
[...]
            ngfft8         32      32      32
            ngfft9         36      36      36
            ngfft10        36      36      36
            ngfft11        40      40      40
            ngfft12        40      40      40
            ngfft13        40      40      40
            ngfft14        40      40      40
            ngfft15        45      45      45
            ngfft16        45      45      45
            ngfft17        45      45      45
            ngfft18        48      48      48
            ngfft19        48      48      48
            ngfft20        48      48      48
            ngfft21        48      48      48
            ngfft22        50      50      50
             nkpt         110
            nstep          10
             nsym          48
            ntime          10
           ntypat           1
              occ      2.000000  2.000000  2.000000  2.000000  0.000000
          optcell           1
            rprim      0.0000000000E+00  5.0000000000E-01  5.0000000000E-01
                       5.0000000000E-01  0.0000000000E+00  5.0000000000E-01
                       5.0000000000E-01  5.0000000000E-01  0.0000000000E+00
           shiftk      5.00000000E-01  5.00000000E-01  5.00000000E-01
          spgroup         227
           strten1     3.9807361966E-07  3.9807361966E-07  3.9807361966E-07
                       0.0000000000E+00  0.0000000000E+00  0.0000000000E+00
           strten2    -2.9654441537E-07 -2.9654441537E-07 -2.9654441537E-07
                       0.0000000000E+00  0.0000000000E+00  0.0000000000E+00
           strten3    -3.3118500369E-07 -3.3118500369E-07 -3.3118500369E-07
                       0.0000000000E+00  0.0000000000E+00  0.0000000000E+00
           strten4    -3.6984134627E-07 -3.6984134627E-07 -3.6984134627E-07
                       0.0000000000E+00  0.0000000000E+00  0.0000000000E+00
           strten5    -3.6359141098E-07 -3.6359141098E-07 -3.6359141098E-07
                       0.0000000000E+00  0.0000000000E+00  0.0000000000E+00
           strten6    -3.7444093740E-07 -3.7444093740E-07 -3.7444093740E-07
                       0.0000000000E+00  0.0000000000E+00  0.0000000000E+00
           strten7    -3.7212051645E-07 -3.7212051645E-07 -3.7212051645E-07
                       0.0000000000E+00  0.0000000000E+00  0.0000000000E+00
           strten8    -3.7127345785E-07 -3.7127345785E-07 -3.7127345785E-07
                       0.0000000000E+00  0.0000000000E+00  0.0000000000E+00
           strten9    -3.7066703703E-07 -3.7066703703E-07 -3.7066703703E-07
                       0.0000000000E+00  0.0000000000E+00  0.0000000000E+00
           strten10   -3.6887663374E-07 -3.6887663374E-07 -3.6887663374E-07
                       0.0000000000E+00  0.0000000000E+00  0.0000000000E+00
           strten11   -3.6637056073E-07 -3.6637056073E-07 -3.6637056073E-07
                       0.0000000000E+00  0.0000000000E+00  0.0000000000E+00
           strten12   -3.7036389319E-07 -3.7036389319E-07 -3.7036389319E-07
                       0.0000000000E+00  0.0000000000E+00  0.0000000000E+00
           strten13   -3.6808948436E-07 -3.6808948436E-07 -3.6808948436E-07
                       0.0000000000E+00  0.0000000000E+00  0.0000000000E+00
           strten14   -3.7028370317E-07 -3.7028370317E-07 -3.7028370317E-07
                       0.0000000000E+00  0.0000000000E+00  0.0000000000E+00
           strten15   -3.7024087957E-07 -3.7024087957E-07 -3.7024087957E-07
                       0.0000000000E+00  0.0000000000E+00  0.0000000000E+00
           strten16   -3.6985611598E-07 -3.6985611598E-07 -3.6985611598E-07
                       0.0000000000E+00  0.0000000000E+00  0.0000000000E+00
           strten17   -3.6857308075E-07 -3.6857308075E-07 -3.6857308075E-07
                       0.0000000000E+00  0.0000000000E+00  0.0000000000E+00
           strten18   -3.7031865564E-07 -3.7031865564E-07 -3.7031865564E-07
                       0.0000000000E+00  0.0000000000E+00  0.0000000000E+00
           strten19   -3.6961306873E-07 -3.6961306873E-07 -3.6961306873E-07
                       0.0000000000E+00  0.0000000000E+00  0.0000000000E+00
           strten20   -3.7053825418E-07 -3.7053825418E-07 -3.7053825418E-07
                       0.0000000000E+00  0.0000000000E+00  0.0000000000E+00
           strten21   -3.7027109233E-07 -3.7027109233E-07 -3.7027109233E-07
                       0.0000000000E+00  0.0000000000E+00  0.0000000000E+00
           strten22   -3.7020582603E-07 -3.7020582603E-07 -3.7020582603E-07
                       0.0000000000E+00  0.0000000000E+00  0.0000000000E+00
           symrel      1  0  0   0  1  0   0  0  1      -1  0  0   0 -1  0   0  0 -1
                       0 -1  1   0 -1  0   1 -1  0       0  1 -1   0  1  0  -1  1  0
                      -1  0  0  -1  0  1  -1  1  0       1  0  0   1  0 -1   1 -1  0
                       0  1 -1   1  0 -1   0  0 -1       0 -1  1  -1  0  1   0  0  1
                      -1  0  0  -1  1  0  -1  0  1       1  0  0   1 -1  0   1  0 -1
                       0 -1  1   1 -1  0   0 -1  0       0  1 -1  -1  1  0   0  1  0
                       1  0  0   0  0  1   0  1  0      -1  0  0   0  0 -1   0 -1  0
                       0  1 -1   0  0 -1   1  0 -1       0 -1  1   0  0  1  -1  0  1
                      -1  0  1  -1  1  0  -1  0  0       1  0 -1   1 -1  0   1  0  0
                       0 -1  0   1 -1  0   0 -1  1       0  1  0  -1  1  0   0  1 -1
                       1  0 -1   0  0 -1   0  1 -1      -1  0  1   0  0  1   0 -1  1
                       0  1  0   0  0  1   1  0  0       0 -1  0   0  0 -1  -1  0  0
                       1  0 -1   0  1 -1   0  0 -1      -1  0  1   0 -1  1   0  0  1
                       0 -1  0   0 -1  1   1 -1  0       0  1  0   0  1 -1  -1  1  0
                      -1  0  1  -1  0  0  -1  1  0       1  0 -1   1  0  0   1 -1  0
                       0  1  0   1  0  0   0  0  1       0 -1  0  -1  0  0   0  0 -1
                       0  0 -1   0  1 -1   1  0 -1       0  0  1   0 -1  1  -1  0  1
                       1 -1  0   0 -1  1   0 -1  0      -1  1  0   0  1 -1   0  1  0
                       0  0  1   1  0  0   0  1  0       0  0 -1  -1  0  0   0 -1  0
                      -1  1  0  -1  0  0  -1  0  1       1 -1  0   1  0  0   1  0 -1
                       0  0  1   0  1  0   1  0  0       0  0 -1   0 -1  0  -1  0  0
                       1 -1  0   0 -1  0   0 -1  1      -1  1  0   0  1  0   0  1 -1
                       0  0 -1   1  0 -1   0  1 -1       0  0  1  -1  0  1   0 -1  1
                      -1  1  0  -1  0  1  -1  0  0       1 -1  0   1  0 -1   1  0  0
            tnons      0.0000000  0.0000000  0.0000000     0.2500000  0.2500000  0.2500000
                       0.0000000  0.0000000  0.0000000     0.2500000  0.2500000  0.2500000
                       0.0000000  0.0000000  0.0000000     0.2500000  0.2500000  0.2500000
                       0.0000000  0.0000000  0.0000000     0.2500000  0.2500000  0.2500000
                       0.0000000  0.0000000  0.0000000     0.2500000  0.2500000  0.2500000
                       0.0000000  0.0000000  0.0000000     0.2500000  0.2500000  0.2500000
                       0.0000000  0.0000000  0.0000000     0.2500000  0.2500000  0.2500000
                       0.0000000  0.0000000  0.0000000     0.2500000  0.2500000  0.2500000
                       0.0000000  0.0000000  0.0000000     0.2500000  0.2500000  0.2500000
                       0.0000000  0.0000000  0.0000000     0.2500000  0.2500000  0.2500000
                       0.0000000  0.0000000  0.0000000     0.2500000  0.2500000  0.2500000
                       0.0000000  0.0000000  0.0000000     0.2500000  0.2500000  0.2500000
                       0.0000000  0.0000000  0.0000000     0.2500000  0.2500000  0.2500000
                       0.0000000  0.0000000  0.0000000     0.2500000  0.2500000  0.2500000
                       0.0000000  0.0000000  0.0000000     0.2500000  0.2500000  0.2500000
                       0.0000000  0.0000000  0.0000000     0.2500000  0.2500000  0.2500000
                       0.0000000  0.0000000  0.0000000     0.2500000  0.2500000  0.2500000
                       0.0000000  0.0000000  0.0000000     0.2500000  0.2500000  0.2500000
                       0.0000000  0.0000000  0.0000000     0.2500000  0.2500000  0.2500000
                       0.0000000  0.0000000  0.0000000     0.2500000  0.2500000  0.2500000
                       0.0000000  0.0000000  0.0000000     0.2500000  0.2500000  0.2500000
                       0.0000000  0.0000000  0.0000000     0.2500000  0.2500000  0.2500000
                       0.0000000  0.0000000  0.0000000     0.2500000  0.2500000  0.2500000
                       0.0000000  0.0000000  0.0000000     0.2500000  0.2500000  0.2500000
           toldfe      1.00000000E-06 Hartree
            typat      1  1
              wtk        0.00600    0.00600    0.00600    0.01200    0.00600    0.00600
                         0.01200    0.00600    0.01200    0.01200    0.00600    0.00600
                         0.01200    0.00600    0.01200    0.01200    0.00600    0.01200
                         0.01200    0.01200    0.00600    0.00600    0.01200    0.00600
                         0.01200    0.01200    0.00600    0.01200    0.01200    0.01200
                         0.00600    0.01200    0.01200    0.01200    0.01200    0.00600
                         0.00600    0.00600    0.01200    0.00600    0.01200    0.01200
                         0.01200    0.00600    0.01200    0.01200    0.01200    0.01200
                         0.00600    0.01200
                       outvars : Printing only first  50 k-points.
           xangst1     0.0000000000E+00  0.0000000000E+00  0.0000000000E+00
                       1.3515098903E+00  1.3515098903E+00  1.3515098903E+00
           xangst2     0.0000000000E+00  0.0000000000E+00  0.0000000000E+00
                       1.3491594291E+00  1.3491594291E+00  1.3491594291E+00
           xangst3     0.0000000000E+00  0.0000000000E+00  0.0000000000E+00
                       1.3493003012E+00  1.3493003012E+00  1.3493003012E+00
           xangst4     0.0000000000E+00  0.0000000000E+00  0.0000000000E+00
                       1.3493938281E+00  1.3493938281E+00  1.3493938281E+00
           xangst5     0.0000000000E+00  0.0000000000E+00  0.0000000000E+00
                       1.3494106171E+00  1.3494106171E+00  1.3494106171E+00
           xangst6     0.0000000000E+00  0.0000000000E+00  0.0000000000E+00
                       1.3494297062E+00  1.3494297062E+00  1.3494297062E+00
           xangst7     0.0000000000E+00  0.0000000000E+00  0.0000000000E+00
                       1.3494340088E+00  1.3494340088E+00  1.3494340088E+00
           xangst8     0.0000000000E+00  0.0000000000E+00  0.0000000000E+00
                       1.3494333355E+00  1.3494333355E+00  1.3494333355E+00
           xangst9    -7.4585869184E-32  2.0401915263E-32  7.4680649233E-32
                       1.3494348974E+00  1.3494348974E+00  1.3494348974E+00
           xangst10    0.0000000000E+00  0.0000000000E+00  0.0000000000E+00
                       1.3494299685E+00  1.3494299685E+00  1.3494299685E+00
           xangst11    1.5792644076E-31 -1.5792644076E-31 -1.5792644076E-31
                       1.3494330911E+00  1.3494330911E+00  1.3494330911E+00
           xangst12    1.1278769869E-31 -1.1278769869E-31 -1.1278769869E-31
                       1.3494349639E+00  1.3494349639E+00  1.3494349639E+00
           xangst13    3.3377329073E-31  6.3039613934E-32 -3.3389808790E-31
                       1.3494362259E+00  1.3494362259E+00  1.3494362259E+00
           xangst14    0.0000000000E+00  0.0000000000E+00  0.0000000000E+00
                       1.3494360798E+00  1.3494360798E+00  1.3494360798E+00
           xangst15    0.0000000000E+00  0.0000000000E+00  0.0000000000E+00
                       1.3494360267E+00  1.3494360267E+00  1.3494360267E+00
           xangst16    0.0000000000E+00  0.0000000000E+00  0.0000000000E+00
                       1.3494358934E+00  1.3494358934E+00  1.3494358934E+00
           xangst17    9.0240208372E-32  9.0240208372E-32 -9.0240208372E-32
                       1.3494360407E+00  1.3494360407E+00  1.3494360407E+00
           xangst18    0.0000000000E+00  0.0000000000E+00  0.0000000000E+00
                       1.3494359722E+00  1.3494359722E+00  1.3494359722E+00
           xangst19    0.0000000000E+00  0.0000000000E+00  0.0000000000E+00
                       1.3494363293E+00  1.3494363293E+00  1.3494363293E+00
           xangst20    0.0000000000E+00  0.0000000000E+00  0.0000000000E+00
                       1.3494363296E+00  1.3494363296E+00  1.3494363296E+00
           xangst21    0.0000000000E+00  0.0000000000E+00  0.0000000000E+00
                       1.3494364523E+00  1.3494364523E+00  1.3494364523E+00
           xangst22    9.0234762422E-32 -9.0234762422E-32 -9.0234762422E-32
                       1.3494364705E+00  1.3494364705E+00  1.3494364705E+00
            xcart1     0.0000000000E+00  0.0000000000E+00  0.0000000000E+00
                       2.5539835585E+00  2.5539835585E+00  2.5539835585E+00
            xcart2     0.0000000000E+00  0.0000000000E+00  0.0000000000E+00
                       2.5495418306E+00  2.5495418306E+00  2.5495418306E+00
            xcart3     0.0000000000E+00  0.0000000000E+00  0.0000000000E+00
                       2.5498080403E+00  2.5498080403E+00  2.5498080403E+00
            xcart4     0.0000000000E+00  0.0000000000E+00  0.0000000000E+00
                       2.5499847805E+00  2.5499847805E+00  2.5499847805E+00
            xcart5     0.0000000000E+00  0.0000000000E+00  0.0000000000E+00
                       2.5500165071E+00  2.5500165071E+00  2.5500165071E+00
            xcart6     0.0000000000E+00  0.0000000000E+00  0.0000000000E+00
                       2.5500525803E+00  2.5500525803E+00  2.5500525803E+00
            xcart7     0.0000000000E+00  0.0000000000E+00  0.0000000000E+00
                       2.5500607111E+00  2.5500607111E+00  2.5500607111E+00
            xcart8     0.0000000000E+00  0.0000000000E+00  0.0000000000E+00
                       2.5500594387E+00  2.5500594387E+00  2.5500594387E+00
            xcart9    -1.4094686614E-31  3.8554032434E-32  1.4112597448E-31
                       2.5500623902E+00  2.5500623902E+00  2.5500623902E+00
            xcart10    0.0000000000E+00  0.0000000000E+00  0.0000000000E+00
                       2.5500530760E+00  2.5500530760E+00  2.5500530760E+00
            xcart11    2.9843772218E-31 -2.9843772218E-31 -2.9843772218E-31
                       2.5500589769E+00  2.5500589769E+00  2.5500589769E+00
            xcart12    2.1313786168E-31 -2.1313786168E-31 -2.1313786168E-31
                       2.5500625160E+00  2.5500625160E+00  2.5500625160E+00
            xcart13    6.3074010996E-31  1.1912760586E-31 -6.3097594243E-31
                       2.5500649007E+00  2.5500649007E+00  2.5500649007E+00
            xcart14    0.0000000000E+00  0.0000000000E+00  0.0000000000E+00
                       2.5500646246E+00  2.5500646246E+00  2.5500646246E+00
            xcart15    0.0000000000E+00  0.0000000000E+00  0.0000000000E+00
                       2.5500645243E+00  2.5500645243E+00  2.5500645243E+00
            xcart16    0.0000000000E+00  0.0000000000E+00  0.0000000000E+00
                       2.5500642725E+00  2.5500642725E+00  2.5500642725E+00
            xcart17    1.7052928000E-31  1.7052928000E-31 -1.7052928000E-31
                       2.5500645507E+00  2.5500645507E+00  2.5500645507E+00
            xcart18    0.0000000000E+00  0.0000000000E+00  0.0000000000E+00
                       2.5500644214E+00  2.5500644214E+00  2.5500644214E+00
            xcart19    0.0000000000E+00  0.0000000000E+00  0.0000000000E+00
                       2.5500650961E+00  2.5500650961E+00  2.5500650961E+00
            xcart20    0.0000000000E+00  0.0000000000E+00  0.0000000000E+00
                       2.5500650967E+00  2.5500650967E+00  2.5500650967E+00
            xcart21    0.0000000000E+00  0.0000000000E+00  0.0000000000E+00
                       2.5500653287E+00  2.5500653287E+00  2.5500653287E+00
            xcart22    1.7051898864E-31 -1.7051898864E-31 -1.7051898864E-31
                       2.5500653630E+00  2.5500653630E+00  2.5500653630E+00
             xred      0.0000000000E+00  0.0000000000E+00  0.0000000000E+00
                       2.5000000000E-01  2.5000000000E-01  2.5000000000E-01
            znucl       14.00000

- Timing analysis has been suppressed with timopt=0

 Suggested references for the acknowledgment of ABINIT usage.

 Calculation completed.
.Delivered  42 WARNINGs and  32 COMMENTs to log file.