.Version 8.0.7 of ABINIT

 ABINIT is a project of the Universite Catholique de Louvain,
 Corning Inc. and other collaborators, see ~abinit/doc/developers/contributors.txt .
 Please read ~abinit/doc/users/acknowledgments.html for suggested
 acknowledgments of the ABINIT effort.

.Starting date : Thu 26 Apr 2018.
- ( at 12h06 )

 === Build Information ===
  Version       : 8.0.7
  Build target  : x86_64_linux_gnu4.9
  Build date    : 20160627

 === Optimizations ===
  Debug level        : basic
  Optimization level : standard
  Architecture       : intel_xeon

 === Multicore ===
  Parallel build : yes
  Parallel I/O   : auto
  openMP support : no
  GPU support    : no

 === Connectors / Fallbacks ===
  Connectors on : yes
  Fallbacks on  : yes
  DFT flavor    : none
  FFT flavor    : none
  LINALG flavor : netlib-fallback
  MATH flavor   : none
  TIMER flavor  : abinit
  TRIO flavor   : none

 === Experimental features ===
  Bindings            : @enable_bindings@
  Exports             : no
  GW double-precision : no

 Default optimizations:
   -O2 -mtune=native -march=native

 Optimizations for 20_datashare:
   -O0

 CPP options activated during the build:

                    CC_GNU                   CXX_GNU                    FC_GNU

 HAVE_FC_ALLOCATABLE_DT...             HAVE_FC_ASYNC         HAVE_FC_BACKTRACE

  HAVE_FC_COMMAND_ARGUMENT      HAVE_FC_COMMAND_LINE        HAVE_FC_CONTIGUOUS

           HAVE_FC_CPUTIME              HAVE_FC_EXIT             HAVE_FC_FLUSH

             HAVE_FC_GAMMA            HAVE_FC_GETENV          HAVE_FC_INT_QUAD

             HAVE_FC_IOMSG     HAVE_FC_ISO_C_BINDING  HAVE_FC_ISO_FORTRAN_2008

        HAVE_FC_LONG_LINES        HAVE_FC_MOVE_ALLOC           HAVE_FC_PRIVATE

         HAVE_FC_PROTECTED         HAVE_FC_STREAM_IO            HAVE_FC_SYSTEM

          HAVE_FORTRAN2003        HAVE_LIBPAW_ABINIT      HAVE_LIBTETRA_ABINIT

                  HAVE_MPI                 HAVE_MPI1               HAVE_MPI_IO

 HAVE_MPI_TYPE_CREATE_S...                HAVE_NUMPY             HAVE_OS_LINUX

                HAVE_TIMER         HAVE_TIMER_ABINIT            HAVE_TIMER_MPI

         HAVE_TIMER_SERIAL              USE_MACROAVE

- input  file    -> Si_in.txt
- output file    -> Si_out.txt
- root for input  files -> Si_i
- root for output files -> Si_o

-instrng: 75 lines of input have been read from file Si_in.txt

  status : statnu, output_rate, shift_rate=           1           0           1
 level,routine=           3 init istatr
 active(level)=           1
 counter,actual_counter(level,1:2)=           0           0           0
 List of active levels :
  Active level number=           3

 Please give name of formatted atomic psp file
 iofn2 : for atom type 1, psp file is 14si.txt
  read the values zionpsp=  4.0 , pspcod=   1 , lmax=   2

 inpspheads: deduce mpsang = 3, n1xccc = 2501.

 invars1m : enter jdtset= 1
 invars1 : treat image number: 1

 symlatt : the Bravais lattice is cF (face-centered cubic)
  xred   is defined in input file
 ingeo : takes atomic coordinates from input array xred

 symlatt : the Bravais lattice is cF (face-centered cubic)

 symlatt : the Bravais lattice is cF (face-centered cubic)
 symspgr : spgroup= 227  Fd -3 m   (=Oh^7)
 ingeo : angdeg(1:3)=   60.00000000   60.00000000   60.00000000
       Simple Lattice Grid
 invars2: take the default value of fband=  1.25000000E-01
       Simple Lattice Grid

 invars2 : Printing the k point grid (values of kptns - max 100 of them)
 nkpt=    2000
     ikpt istwfk    wtk       --------- reduced coordinates ---------  --------- cartesian coordinates ---------
       1     1  5.000000E-04 -5.000000E-02 -1.000000E-01  0.000000E+00 -4.901651E-03  4.901651E-03 -1.470495E-02
       2     1  5.000000E-04 -1.000000E-01 -5.000000E-02  0.000000E+00  4.901651E-03 -4.901651E-03 -1.470495E-02
       3     1  5.000000E-04 -5.000000E-02 -5.000000E-02  5.000000E-02  4.901651E-03  4.901651E-03 -1.470495E-02
       4     1  5.000000E-04 -5.000000E-02 -2.000000E-01  0.000000E+00 -1.470495E-02  1.470495E-02 -2.450825E-02
       5     1  5.000000E-04 -1.000000E-01 -1.500000E-01  0.000000E+00 -4.901651E-03  4.901651E-03 -2.450825E-02
       6     1  5.000000E-04 -5.000000E-02 -1.500000E-01  5.000000E-02 -4.901651E-03  1.470495E-02 -2.450825E-02
       7     1  5.000000E-04 -1.500000E-01 -1.000000E-01  0.000000E+00  4.901651E-03 -4.901651E-03 -2.450825E-02
       8     1  5.000000E-04 -1.000000E-01 -1.000000E-01  5.000000E-02  4.901651E-03  4.901651E-03 -2.450825E-02
       9     1  5.000000E-04 -5.000000E-02 -1.000000E-01  1.000000E-01  4.901651E-03  1.470495E-02 -2.450825E-02
      10     1  5.000000E-04 -2.000000E-01 -5.000000E-02  0.000000E+00  1.470495E-02 -1.470495E-02 -2.450825E-02
      11     1  5.000000E-04 -1.500000E-01 -5.000000E-02  5.000000E-02  1.470495E-02 -4.901651E-03 -2.450825E-02
      12     1  5.000000E-04 -1.000000E-01 -5.000000E-02  1.000000E-01  1.470495E-02  4.901651E-03 -2.450825E-02
      13     1  5.000000E-04 -5.000000E-02 -5.000000E-02  1.500000E-01  1.470495E-02  1.470495E-02 -2.450825E-02
      14     1  5.000000E-04 -5.000000E-02 -3.000000E-01  0.000000E+00 -2.450825E-02  2.450825E-02 -3.431155E-02
      15     1  5.000000E-04 -1.000000E-01 -2.500000E-01  0.000000E+00 -1.470495E-02  1.470495E-02 -3.431155E-02
      16     1  5.000000E-04 -5.000000E-02 -2.500000E-01  5.000000E-02 -1.470495E-02  2.450825E-02 -3.431155E-02
      17     1  5.000000E-04 -1.500000E-01 -2.000000E-01  0.000000E+00 -4.901651E-03  4.901651E-03 -3.431155E-02
      18     1  5.000000E-04 -1.000000E-01 -2.000000E-01  5.000000E-02 -4.901651E-03  1.470495E-02 -3.431155E-02
      19     1  5.000000E-04 -5.000000E-02 -2.000000E-01  1.000000E-01 -4.901651E-03  2.450825E-02 -3.431155E-02
      20     1  5.000000E-04 -2.000000E-01 -1.500000E-01  0.000000E+00  4.901651E-03 -4.901651E-03 -3.431155E-02
      21     1  5.000000E-04 -1.500000E-01 -1.500000E-01  5.000000E-02  4.901651E-03  4.901651E-03 -3.431155E-02
      22     1  5.000000E-04 -1.000000E-01 -1.500000E-01  1.000000E-01  4.901651E-03  1.470495E-02 -3.431155E-02
      23     1  5.000000E-04 -5.000000E-02 -1.500000E-01  1.500000E-01  4.901651E-03  2.450825E-02 -3.431155E-02
      24     1  5.000000E-04 -2.500000E-01 -1.000000E-01  0.000000E+00  1.470495E-02 -1.470495E-02 -3.431155E-02
      25     1  5.000000E-04 -2.000000E-01 -1.000000E-01  5.000000E-02  1.470495E-02 -4.901651E-03 -3.431155E-02
      26     1  5.000000E-04 -1.500000E-01 -1.000000E-01  1.000000E-01  1.470495E-02  4.901651E-03 -3.431155E-02
      27     1  5.000000E-04 -1.000000E-01 -1.000000E-01  1.500000E-01  1.470495E-02  1.470495E-02 -3.431155E-02
      28     1  5.000000E-04 -5.000000E-02 -1.000000E-01  2.000000E-01  1.470495E-02  2.450825E-02 -3.431155E-02
      29     1  5.000000E-04 -3.000000E-01 -5.000000E-02  0.000000E+00  2.450825E-02 -2.450825E-02 -3.431155E-02
      30     1  5.000000E-04 -2.500000E-01 -5.000000E-02  5.000000E-02  2.450825E-02 -1.470495E-02 -3.431155E-02
      31     1  5.000000E-04 -2.000000E-01 -5.000000E-02  1.000000E-01  2.450825E-02 -4.901651E-03 -3.431155E-02
      32     1  5.000000E-04 -1.500000E-01 -5.000000E-02  1.500000E-01  2.450825E-02  4.901651E-03 -3.431155E-02
      33     1  5.000000E-04 -1.000000E-01 -5.000000E-02  2.000000E-01  2.450825E-02  1.470495E-02 -3.431155E-02
      34     1  5.000000E-04 -5.000000E-02 -5.000000E-02  2.500000E-01  2.450825E-02  2.450825E-02 -3.431155E-02
      35     1  5.000000E-04 -5.000000E-02 -4.000000E-01  0.000000E+00 -3.431155E-02  3.431155E-02 -4.411486E-02
      36     1  5.000000E-04 -1.000000E-01 -3.500000E-01  0.000000E+00 -2.450825E-02  2.450825E-02 -4.411486E-02
      37     1  5.000000E-04 -5.000000E-02 -3.500000E-01  5.000000E-02 -2.450825E-02  3.431155E-02 -4.411486E-02
      38     1  5.000000E-04 -1.500000E-01 -3.000000E-01  0.000000E+00 -1.470495E-02  1.470495E-02 -4.411486E-02
      39     1  5.000000E-04 -1.000000E-01 -3.000000E-01  5.000000E-02 -1.470495E-02  2.450825E-02 -4.411486E-02
      40     1  5.000000E-04 -5.000000E-02 -3.000000E-01  1.000000E-01 -1.470495E-02  3.431155E-02 -4.411486E-02
      41     1  5.000000E-04 -2.000000E-01 -2.500000E-01  0.000000E+00 -4.901651E-03  4.901651E-03 -4.411486E-02
      42     1  5.000000E-04 -1.500000E-01 -2.500000E-01  5.000000E-02 -4.901651E-03  1.470495E-02 -4.411486E-02
      43     1  5.000000E-04 -1.000000E-01 -2.500000E-01  1.000000E-01 -4.901651E-03  2.450825E-02 -4.411486E-02
      44     1  5.000000E-04 -5.000000E-02 -2.500000E-01  1.500000E-01 -4.901651E-03  3.431155E-02 -4.411486E-02
      45     1  5.000000E-04 -2.500000E-01 -2.000000E-01  0.000000E+00  4.901651E-03 -4.901651E-03 -4.411486E-02
      46     1  5.000000E-04 -2.000000E-01 -2.000000E-01  5.000000E-02  4.901651E-03  4.901651E-03 -4.411486E-02
      47     1  5.000000E-04 -1.500000E-01 -2.000000E-01  1.000000E-01  4.901651E-03  1.470495E-02 -4.411486E-02
      48     1  5.000000E-04 -1.000000E-01 -2.000000E-01  1.500000E-01  4.901651E-03  2.450825E-02 -4.411486E-02
      49     1  5.000000E-04 -5.000000E-02 -2.000000E-01  2.000000E-01  4.901651E-03  3.431155E-02 -4.411486E-02
      50     1  5.000000E-04 -3.000000E-01 -1.500000E-01  0.000000E+00  1.470495E-02 -1.470495E-02 -4.411486E-02
      51     1  5.000000E-04 -2.500000E-01 -1.500000E-01  5.000000E-02  1.470495E-02 -4.901651E-03 -4.411486E-02
      52     1  5.000000E-04 -2.000000E-01 -1.500000E-01  1.000000E-01  1.470495E-02  4.901651E-03 -4.411486E-02
      53     1  5.000000E-04 -1.500000E-01 -1.500000E-01  1.500000E-01  1.470495E-02  1.470495E-02 -4.411486E-02
      54     1  5.000000E-04 -1.000000E-01 -1.500000E-01  2.000000E-01  1.470495E-02  2.450825E-02 -4.411486E-02
      55     1  5.000000E-04 -5.000000E-02 -1.500000E-01  2.500000E-01  1.470495E-02  3.431155E-02 -4.411486E-02
      56     1  5.000000E-04 -3.500000E-01 -1.000000E-01  0.000000E+00  2.450825E-02 -2.450825E-02 -4.411486E-02
      57     1  5.000000E-04 -3.000000E-01 -1.000000E-01  5.000000E-02  2.450825E-02 -1.470495E-02 -4.411486E-02
      58     1  5.000000E-04 -2.500000E-01 -1.000000E-01  1.000000E-01  2.450825E-02 -4.901651E-03 -4.411486E-02
      59     1  5.000000E-04 -2.000000E-01 -1.000000E-01  1.500000E-01  2.450825E-02  4.901651E-03 -4.411486E-02
      60     1  5.000000E-04 -1.500000E-01 -1.000000E-01  2.000000E-01  2.450825E-02  1.470495E-02 -4.411486E-02
[...]
      86     1  5.000000E-04 -3.000000E-01 -2.500000E-01  0.000000E+00  4.901651E-03 -4.901651E-03 -5.391816E-02
      87     1  5.000000E-04 -2.500000E-01 -2.500000E-01  5.000000E-02  4.901651E-03  4.901651E-03 -5.391816E-02
      88     1  5.000000E-04 -2.000000E-01 -2.500000E-01  1.000000E-01  4.901651E-03  1.470495E-02 -5.391816E-02
      89     1  5.000000E-04 -1.500000E-01 -2.500000E-01  1.500000E-01  4.901651E-03  2.450825E-02 -5.391816E-02
      90     1  5.000000E-04 -1.000000E-01 -2.500000E-01  2.000000E-01  4.901651E-03  3.431155E-02 -5.391816E-02
      91     1  5.000000E-04 -5.000000E-02 -2.500000E-01  2.500000E-01  4.901651E-03  4.411486E-02 -5.391816E-02
      92     1  5.000000E-04 -3.500000E-01 -2.000000E-01  0.000000E+00  1.470495E-02 -1.470495E-02 -5.391816E-02
[...]
  2.08E-12 4.78E-13 4.59E-13 6.01E-13 7.69E-05
  -0.2500 -0.1000  0.0000    1  1.16501E-09 kpt; spin; max resid(k); each band:
  3.05E-12 3.89E-13 5.12E-13 1.02E-12 1.17E-09
  -0.2000 -0.1000  0.0500    1  1.12727E-10 kpt; spin; max resid(k); each band:
  6.35E-13 4.01E-13 8.09E-13 7.08E-13 1.13E-10
  -0.1500 -0.1000  0.1000    1  2.41106E-10 kpt; spin; max resid(k); each band:
  6.13E-13 4.79E-13 6.86E-13 6.78E-13 2.41E-10
  -0.1000 -0.1000  0.1500    1  3.82925E-09 kpt; spin; max resid(k); each band:
  2.83E-12 4.97E-13 6.19E-13 6.21E-13 3.83E-09
  -0.0500 -0.1000  0.2000    1  1.89962E-07 kpt; spin; max resid(k); each band:
  1.70E-12 5.02E-13 5.82E-13 6.89E-13 1.90E-07
  -0.3000 -0.0500  0.0000    1  1.24238E-09 kpt; spin; max resid(k); each band:
  2.78E-12 3.50E-13 4.32E-13 6.48E-13 1.24E-09
  -0.2500 -0.0500  0.0500    1  5.97547E-08 kpt; spin; max resid(k); each band:
  3.08E-12 3.83E-13 6.59E-13 5.58E-13 5.98E-08
  -0.2000 -0.0500  0.1000    1  3.56938E-06 kpt; spin; max resid(k); each band:
  6.28E-13 3.84E-13 7.37E-13 6.34E-13 3.57E-06
  -0.1500 -0.0500  0.1500    1  8.96669E-06 kpt; spin; max resid(k); each band:
  2.49E-12 4.56E-13 8.22E-13 6.15E-13 8.97E-06
  -0.1000 -0.0500  0.2000    1  3.39523E-07 kpt; spin; max resid(k); each band:
  1.59E-12 5.04E-13 7.61E-13 6.78E-13 3.40E-07
  -0.0500 -0.0500  0.2500    1  3.30149E-09 kpt; spin; max resid(k); each band:
  1.57E-12 5.58E-13 6.70E-13 8.55E-13 3.30E-09
  -0.0500 -0.4000  0.0000    1  3.82688E-10 kpt; spin; max resid(k); each band:
  1.76E-12 3.36E-12 7.25E-13 8.88E-13 3.83E-10
  -0.1000 -0.3500  0.0000    1  1.17267E-08 kpt; spin; max resid(k); each band:
  1.60E-12 3.18E-12 6.38E-13 6.33E-13 1.17E-08
  -0.0500 -0.3500  0.0500    1  1.09823E-08 kpt; spin; max resid(k); each band:
  5.87E-13 6.15E-13 6.15E-13 7.53E-13 1.10E-08
  -0.1500 -0.3000  0.0000    1  3.19402E-11 kpt; spin; max resid(k); each band:
  2.10E-12 4.31E-13 5.74E-13 6.24E-13 3.19E-11
  -0.1000 -0.3000  0.0500    1  6.02577E-10 kpt; spin; max resid(k); each band:
  1.75E-12 4.01E-13 5.16E-13 5.38E-13 6.03E-10
  -0.0500 -0.3000  0.1000    1  8.21030E-07 kpt; spin; max resid(k); each band:
  6.40E-13 4.61E-13 5.11E-13 6.91E-13 8.21E-07
  -0.2000 -0.2500  0.0000    1  1.83598E-11 kpt; spin; max resid(k); each band:
  2.16E-12 5.03E-13 6.09E-13 6.61E-13 1.84E-11
  -0.1500 -0.2500  0.0500    1  2.88180E-11 kpt; spin; max resid(k); each band:
  2.09E-12 4.73E-13 6.28E-13 4.04E-13 2.88E-11
  -0.1000 -0.2500  0.1000    1  2.02575E-09 kpt; spin; max resid(k); each band:
  1.86E-12 4.11E-13 4.80E-13 4.82E-13 2.03E-09
  -0.0500 -0.2500  0.1500    1  4.80434E-05 kpt; spin; max resid(k); each band:
  1.75E-12 4.09E-13 6.43E-13 5.77E-13 4.80E-05
  -0.2500 -0.2000  0.0000    1  1.69078E-11 kpt; spin; max resid(k); each band:
  2.15E-12 4.00E-13 7.95E-13 6.32E-13 1.69E-11
  -0.2000 -0.2000  0.0500    1  1.83695E-11 kpt; spin; max resid(k); each band:
  2.15E-12 5.02E-13 6.07E-13 6.56E-13 1.84E-11
  -0.1500 -0.2000  0.1000    1  2.88327E-11 kpt; spin; max resid(k); each band:
  2.08E-12 4.71E-13 6.25E-13 4.01E-13 2.88E-11
  -0.1000 -0.2000  0.1500    1  2.02409E-09 kpt; spin; max resid(k); each band:
  1.84E-12 4.10E-13 4.76E-13 4.80E-13 2.02E-09
  -0.0500 -0.2000  0.2000    1  4.80435E-05 kpt; spin; max resid(k); each band:
  1.75E-12 4.09E-13 6.46E-13 5.81E-13 4.80E-05
  -0.3000 -0.1500  0.0000    1  1.58574E-11 kpt; spin; max resid(k); each band:
  2.21E-12 2.98E-13 9.70E-13 5.26E-13 1.59E-11
 outwf : prtvol=0 or 1, do not print more k-points.

 outwf: write wavefunction to file Si_o_DS1_1WF1, with iomode -1

 Thirteen components of 2nd-order total energy (hartree) are
 1,2,3: 0th-order hamiltonian combined with 1st-order wavefunctions
     kin0=   6.50877292E+01 eigvalue=  -3.88910566E+00  local=  -4.50749453E+01
 4,5,6: 1st-order hamiltonian combined with 1st and 0th-order wfs
 loc psp =  -1.65777151E+01  Hartree=   1.38820306E+01     xc=  -5.49516106E+00
 note that "loc psp" includes a xc core correction that could be resolved
 7,8,9: eventually, occupation + non-local contributions
    edocc=   1.91179078E+00     enl0=   2.83183951E+01   enl1=  -9.29037463E+01
 1-9 gives the relaxation energy (to be shifted if some occ is /=2.0)
   erelax=  -5.47407278E+01
 10,11,12 Non-relaxation  contributions : frozen-wavefunctions and Ewald
 fr.local=  -4.12939589E+00 fr.nonlo=   5.41309558E+01  Ewald=   1.31404710E+01
 dfpt_prtene : non-relax=    6.314203E+01
 13,14 Frozen wf xc core corrections (1) and (2)
 frxc 1  =  -7.93884919E+00  frxc 2 =   6.85668013E+00
 Resulting in :
 2DEtotal=    0.7319134142E+01 Ha. Also 2DEtotal=    0.199163768669E+03 eV
    (2DErelax=   -5.4740727751E+01 Ha. 2DEnonrelax=    6.2059861894E+01 Ha)
    (  non-var. 2DEtotal :    7.3191311712E+00 Ha)

 ---- first-order wavefunction calculations are completed ----

 ==> Compute Derivative Database <==
  dfpt_dyout : exit

 phonon wavelength (reduced coordinates) , norm, and energies in hartree
  0.00 0.00 0.00 1.00
  1.586793423E-06  1.586793999E-06  1.586795728E-06  2.344288377E-03  2.344288377E-03
  2.344288377E-03
 Zero Point Motion energy (sum of freqs/2)=  3.518812757E-03

== END DATASET(S) ==============================================================

 -outvars: echo values of variables after computation  --------
            acell      1.0200645510E+01  1.0200645510E+01  1.0200645510E+01 Bohr
              amu      2.80855000E+01
           diemac      1.20000000E+01
          dilatmx      1.05000000E+00
             ecut      5.00000000E+01 Hartree
           ecutsm      5.00000000E-01 Hartree
           etotal1     7.3191341423E+00
            fcart1     0.0000000000E+00  0.0000000000E+00  0.0000000000E+00
                       0.0000000000E+00  0.0000000000E+00  0.0000000000E+00
-          fftalg         112
           irdwfk           1
           jdtset        1
              kpt     -5.00000000E-02 -1.00000000E-01  0.00000000E+00
                      -1.00000000E-01 -5.00000000E-02  0.00000000E+00
                      -5.00000000E-02 -5.00000000E-02  5.00000000E-02
                      -5.00000000E-02 -2.00000000E-01  0.00000000E+00
                      -1.00000000E-01 -1.50000000E-01  0.00000000E+00
                      -5.00000000E-02 -1.50000000E-01  5.00000000E-02
                      -1.50000000E-01 -1.00000000E-01  0.00000000E+00
                      -1.00000000E-01 -1.00000000E-01  5.00000000E-02
                      -5.00000000E-02 -1.00000000E-01  1.00000000E-01
                      -2.00000000E-01 -5.00000000E-02  0.00000000E+00
                      -1.50000000E-01 -5.00000000E-02  5.00000000E-02
                      -1.00000000E-01 -5.00000000E-02  1.00000000E-01
                      -5.00000000E-02 -5.00000000E-02  1.50000000E-01
                      -5.00000000E-02 -3.00000000E-01  0.00000000E+00
                      -1.00000000E-01 -2.50000000E-01  0.00000000E+00
                      -5.00000000E-02 -2.50000000E-01  5.00000000E-02
                      -1.50000000E-01 -2.00000000E-01  0.00000000E+00
                      -1.00000000E-01 -2.00000000E-01  5.00000000E-02
                      -5.00000000E-02 -2.00000000E-01  1.00000000E-01
                      -2.00000000E-01 -1.50000000E-01  0.00000000E+00
                      -1.50000000E-01 -1.50000000E-01  5.00000000E-02
                      -1.00000000E-01 -1.50000000E-01  1.00000000E-01
                      -5.00000000E-02 -1.50000000E-01  1.50000000E-01
                      -2.50000000E-01 -1.00000000E-01  0.00000000E+00
                      -2.00000000E-01 -1.00000000E-01  5.00000000E-02
                      -1.50000000E-01 -1.00000000E-01  1.00000000E-01
                      -1.00000000E-01 -1.00000000E-01  1.50000000E-01
                      -5.00000000E-02 -1.00000000E-01  2.00000000E-01
                      -3.00000000E-01 -5.00000000E-02  0.00000000E+00
                      -2.50000000E-01 -5.00000000E-02  5.00000000E-02
                      -2.00000000E-01 -5.00000000E-02  1.00000000E-01
                      -1.50000000E-01 -5.00000000E-02  1.50000000E-01
                      -1.00000000E-01 -5.00000000E-02  2.00000000E-01
                      -5.00000000E-02 -5.00000000E-02  2.50000000E-01
                      -5.00000000E-02 -4.00000000E-01  0.00000000E+00
                      -1.00000000E-01 -3.50000000E-01  0.00000000E+00
                      -5.00000000E-02 -3.50000000E-01  5.00000000E-02
                      -1.50000000E-01 -3.00000000E-01  0.00000000E+00
                      -1.00000000E-01 -3.00000000E-01  5.00000000E-02
                      -5.00000000E-02 -3.00000000E-01  1.00000000E-01
                      -2.00000000E-01 -2.50000000E-01  0.00000000E+00
                      -1.50000000E-01 -2.50000000E-01  5.00000000E-02
                      -1.00000000E-01 -2.50000000E-01  1.00000000E-01
                      -5.00000000E-02 -2.50000000E-01  1.50000000E-01
                      -2.50000000E-01 -2.00000000E-01  0.00000000E+00
                      -2.00000000E-01 -2.00000000E-01  5.00000000E-02
                      -1.50000000E-01 -2.00000000E-01  1.00000000E-01
                      -1.00000000E-01 -2.00000000E-01  1.50000000E-01
                      -5.00000000E-02 -2.00000000E-01  2.00000000E-01
                      -3.00000000E-01 -1.50000000E-01  0.00000000E+00
                       outvar_i_n : Printing only first  50 k-points.
           kptopt           2
         kptrlatt       10  -10   10    -10   10   10    -10  -10   10
          kptrlen      1.02006455E+02
P           mkmem        2000
P          mkqmem        2000
P          mk1mem        2000
            natom           2
            nband           5
           ndtset           1
            ngfft          50      50      50
             nkpt        2000
             nqpt           1
            nstep          10
             nsym          48
            ntime          10
           ntypat           1
              occ      2.000000  2.000000  2.000000  2.000000  0.000000
        optdriver           1
          rfatpol           1       2
            rfdir           1       1       1
           rfphon           1
            rprim      0.0000000000E+00  5.0000000000E-01  5.0000000000E-01
                       5.0000000000E-01  0.0000000000E+00  5.0000000000E-01
                       5.0000000000E-01  5.0000000000E-01  0.0000000000E+00
           shiftk      5.00000000E-01  5.00000000E-01  5.00000000E-01
          spgroup         227
           strten1     0.0000000000E+00  0.0000000000E+00  0.0000000000E+00
                       0.0000000000E+00  0.0000000000E+00  0.0000000000E+00
           symrel      1  0  0   0  1  0   0  0  1      -1  0  0   0 -1  0   0  0 -1
                       0 -1  1   0 -1  0   1 -1  0       0  1 -1   0  1  0  -1  1  0
                      -1  0  0  -1  0  1  -1  1  0       1  0  0   1  0 -1   1 -1  0
                       0  1 -1   1  0 -1   0  0 -1       0 -1  1  -1  0  1   0  0  1
                      -1  0  0  -1  1  0  -1  0  1       1  0  0   1 -1  0   1  0 -1
                       0 -1  1   1 -1  0   0 -1  0       0  1 -1  -1  1  0   0  1  0
                       1  0  0   0  0  1   0  1  0      -1  0  0   0  0 -1   0 -1  0
                       0  1 -1   0  0 -1   1  0 -1       0 -1  1   0  0  1  -1  0  1
                      -1  0  1  -1  1  0  -1  0  0       1  0 -1   1 -1  0   1  0  0
                       0 -1  0   1 -1  0   0 -1  1       0  1  0  -1  1  0   0  1 -1
                       1  0 -1   0  0 -1   0  1 -1      -1  0  1   0  0  1   0 -1  1
                       0  1  0   0  0  1   1  0  0       0 -1  0   0  0 -1  -1  0  0
                       1  0 -1   0  1 -1   0  0 -1      -1  0  1   0 -1  1   0  0  1
                       0 -1  0   0 -1  1   1 -1  0       0  1  0   0  1 -1  -1  1  0
                      -1  0  1  -1  0  0  -1  1  0       1  0 -1   1  0  0   1 -1  0
                       0  1  0   1  0  0   0  0  1       0 -1  0  -1  0  0   0  0 -1
                       0  0 -1   0  1 -1   1  0 -1       0  0  1   0 -1  1  -1  0  1
                       1 -1  0   0 -1  1   0 -1  0      -1  1  0   0  1 -1   0  1  0
                       0  0  1   1  0  0   0  1  0       0  0 -1  -1  0  0   0 -1  0
                      -1  1  0  -1  0  0  -1  0  1       1 -1  0   1  0  0   1  0 -1
                       0  0  1   0  1  0   1  0  0       0  0 -1   0 -1  0  -1  0  0
                       1 -1  0   0 -1  0   0 -1  1      -1  1  0   0  1  0   0  1 -1
                       0  0 -1   1  0 -1   0  1 -1       0  0  1  -1  0  1   0 -1  1
                      -1  1  0  -1  0  1  -1  0  0       1 -1  0   1  0 -1   1  0  0
            tnons      0.0000000  0.0000000  0.0000000     0.2500000  0.2500000  0.2500000
                       0.0000000  0.0000000  0.0000000     0.2500000  0.2500000  0.2500000
                       0.0000000  0.0000000  0.0000000     0.2500000  0.2500000  0.2500000
                       0.0000000  0.0000000  0.0000000     0.2500000  0.2500000  0.2500000
                       0.0000000  0.0000000  0.0000000     0.2500000  0.2500000  0.2500000
                       0.0000000  0.0000000  0.0000000     0.2500000  0.2500000  0.2500000
                       0.0000000  0.0000000  0.0000000     0.2500000  0.2500000  0.2500000
                       0.0000000  0.0000000  0.0000000     0.2500000  0.2500000  0.2500000
                       0.0000000  0.0000000  0.0000000     0.2500000  0.2500000  0.2500000
                       0.0000000  0.0000000  0.0000000     0.2500000  0.2500000  0.2500000
                       0.0000000  0.0000000  0.0000000     0.2500000  0.2500000  0.2500000
                       0.0000000  0.0000000  0.0000000     0.2500000  0.2500000  0.2500000
                       0.0000000  0.0000000  0.0000000     0.2500000  0.2500000  0.2500000
                       0.0000000  0.0000000  0.0000000     0.2500000  0.2500000  0.2500000
                       0.0000000  0.0000000  0.0000000     0.2500000  0.2500000  0.2500000
                       0.0000000  0.0000000  0.0000000     0.2500000  0.2500000  0.2500000
                       0.0000000  0.0000000  0.0000000     0.2500000  0.2500000  0.2500000
                       0.0000000  0.0000000  0.0000000     0.2500000  0.2500000  0.2500000
                       0.0000000  0.0000000  0.0000000     0.2500000  0.2500000  0.2500000
                       0.0000000  0.0000000  0.0000000     0.2500000  0.2500000  0.2500000
                       0.0000000  0.0000000  0.0000000     0.2500000  0.2500000  0.2500000
                       0.0000000  0.0000000  0.0000000     0.2500000  0.2500000  0.2500000
                       0.0000000  0.0000000  0.0000000     0.2500000  0.2500000  0.2500000
                       0.0000000  0.0000000  0.0000000     0.2500000  0.2500000  0.2500000
           toldfe      1.00000000E-06 Hartree
            typat      1  1
              wtk        0.00050    0.00050    0.00050    0.00050    0.00050    0.00050
                         0.00050    0.00050    0.00050    0.00050    0.00050    0.00050
                         0.00050    0.00050    0.00050    0.00050    0.00050    0.00050
                         0.00050    0.00050    0.00050    0.00050    0.00050    0.00050
                         0.00050    0.00050    0.00050    0.00050    0.00050    0.00050
                         0.00050    0.00050    0.00050    0.00050    0.00050    0.00050
                         0.00050    0.00050    0.00050    0.00050    0.00050    0.00050
                         0.00050    0.00050    0.00050    0.00050    0.00050    0.00050
                         0.00050    0.00050
                       outvars : Printing only first  50 k-points.
           xangst      0.0000000000E+00  0.0000000000E+00  0.0000000000E+00
                       1.3494872792E+00  1.3494872792E+00  1.3494872792E+00
            xcart      0.0000000000E+00  0.0000000000E+00  0.0000000000E+00
                       2.5501613775E+00  2.5501613775E+00  2.5501613775E+00
             xred      0.0000000000E+00  0.0000000000E+00  0.0000000000E+00
                       2.5000000000E-01  2.5000000000E-01  2.5000000000E-01
            znucl       14.00000

 Suggested references for the acknowledgment of ABINIT usage.

 Calculation completed.
.Delivered  18 WARNINGs and   2 COMMENTs to log file.

--- !FinalSummary
program: abinit
version: 8.0.7
start_datetime: Thu Apr 26 12:06:25 2018
end_datetime: Thu Apr 26 12:23:21 2018
overall_cpu_time:        1014.4
overall_wall_time:        1015.7
exit_requested_by_user: no
timelimit: 0
pseudos:
    Si  : 3916b143991b1cfa1542b130be320e5e
usepaw: 0
mpi_procs: 1
omp_threads: 1
num_warnings: 18
num_comments: 2
...