.Version 8.0.7 of ABINIT

 ABINIT is a project of the Universite Catholique de Louvain,
 Corning Inc. and other collaborators, see ~abinit/doc/developers/contributors.txt .
 Please read ~abinit/doc/users/acknowledgments.html for suggested
 acknowledgments of the ABINIT effort.

.Starting date : Thu 26 Apr 2018.
- ( at 11h54 )

 === Build Information ===
  Version       : 8.0.7
  Build target  : x86_64_linux_gnu4.9
  Build date    : 20160627

 === Optimizations ===
  Debug level        : basic
  Optimization level : standard
  Architecture       : intel_xeon

 === Multicore ===
  Parallel build : yes
  Parallel I/O   : auto
  openMP support : no
  GPU support    : no

 === Connectors / Fallbacks ===
  Connectors on : yes
  Fallbacks on  : yes
  DFT flavor    : none
  FFT flavor    : none
  LINALG flavor : netlib-fallback
  MATH flavor   : none
  TIMER flavor  : abinit
  TRIO flavor   : none

 === Experimental features ===
  Bindings            : @enable_bindings@
  Exports             : no
  GW double-precision : no

 Default optimizations:
   -O2 -mtune=native -march=native

 Optimizations for 20_datashare:
   -O0

 CPP options activated during the build:

                    CC_GNU                   CXX_GNU                    FC_GNU

 HAVE_FC_ALLOCATABLE_DT...             HAVE_FC_ASYNC         HAVE_FC_BACKTRACE

  HAVE_FC_COMMAND_ARGUMENT      HAVE_FC_COMMAND_LINE        HAVE_FC_CONTIGUOUS

           HAVE_FC_CPUTIME              HAVE_FC_EXIT             HAVE_FC_FLUSH

             HAVE_FC_GAMMA            HAVE_FC_GETENV          HAVE_FC_INT_QUAD

             HAVE_FC_IOMSG     HAVE_FC_ISO_C_BINDING  HAVE_FC_ISO_FORTRAN_2008

        HAVE_FC_LONG_LINES        HAVE_FC_MOVE_ALLOC           HAVE_FC_PRIVATE

         HAVE_FC_PROTECTED         HAVE_FC_STREAM_IO            HAVE_FC_SYSTEM

          HAVE_FORTRAN2003        HAVE_LIBPAW_ABINIT      HAVE_LIBTETRA_ABINIT

                  HAVE_MPI                 HAVE_MPI1               HAVE_MPI_IO

 HAVE_MPI_TYPE_CREATE_S...                HAVE_NUMPY             HAVE_OS_LINUX

                HAVE_TIMER         HAVE_TIMER_ABINIT            HAVE_TIMER_MPI

         HAVE_TIMER_SERIAL              USE_MACROAVE

- input  file    -> Si_in.txt
- output file    -> Si_out.txt
- root for input  files -> Si_i
- root for output files -> Si_o

-instrng: 65 lines of input have been read from file Si_in.txt

  status : statnu, output_rate, shift_rate=           1           0           1
 level,routine=           3 init istatr
 active(level)=           1
 counter,actual_counter(level,1:2)=           0           0           0
 List of active levels :
  Active level number=           3

 Please give name of formatted atomic psp file
 iofn2 : for atom type 1, psp file is 14si.txt
  read the values zionpsp=  4.0 , pspcod=   1 , lmax=   2

 inpspheads: deduce mpsang = 3, n1xccc = 2501.

 invars1m : enter jdtset= 1
 invars1 : treat image number: 1

 symlatt : the Bravais lattice is cF (face-centered cubic)
  xred   is defined in input file
 ingeo : takes atomic coordinates from input array xred

 symlatt : the Bravais lattice is cF (face-centered cubic)

 symlatt : the Bravais lattice is cF (face-centered cubic)
 symspgr : spgroup= 227  Fd -3 m   (=Oh^7)
 ingeo : angdeg(1:3)=   60.00000000   60.00000000   60.00000000
       Simple Lattice Grid
 invars2: take the default value of fband=  1.25000000E-01
       Simple Lattice Grid

 invars2 : Printing the k point grid (values of kptns - max 100 of them)
 nkpt=     110
     ikpt istwfk    wtk       --------- reduced coordinates ---------  --------- cartesian coordinates ---------
       1     1  6.000000E-03 -5.000000E-02 -1.000000E-01  0.000000E+00 -4.911591E-03  4.911591E-03 -1.473477E-02
       2     1  6.000000E-03 -5.000000E-02 -2.000000E-01  0.000000E+00 -1.473477E-02  1.473477E-02 -2.455796E-02
       3     1  6.000000E-03 -1.000000E-01 -1.500000E-01  0.000000E+00 -4.911591E-03  4.911591E-03 -2.455796E-02
       4     1  1.200000E-02 -5.000000E-02 -1.500000E-01  5.000000E-02 -4.911591E-03  1.473477E-02 -2.455796E-02
       5     1  6.000000E-03 -5.000000E-02 -3.000000E-01  0.000000E+00 -2.455796E-02  2.455796E-02 -3.438114E-02
       6     1  6.000000E-03 -1.000000E-01 -2.500000E-01  0.000000E+00 -1.473477E-02  1.473477E-02 -3.438114E-02
       7     1  1.200000E-02 -5.000000E-02 -2.500000E-01  5.000000E-02 -1.473477E-02  2.455796E-02 -3.438114E-02
       8     1  6.000000E-03 -1.500000E-01 -2.000000E-01  0.000000E+00 -4.911591E-03  4.911591E-03 -3.438114E-02
       9     1  1.200000E-02 -1.000000E-01 -2.000000E-01  5.000000E-02 -4.911591E-03  1.473477E-02 -3.438114E-02
      10     1  1.200000E-02 -5.000000E-02 -2.000000E-01  1.000000E-01 -4.911591E-03  2.455796E-02 -3.438114E-02
      11     1  6.000000E-03 -5.000000E-02 -4.000000E-01  0.000000E+00 -3.438114E-02  3.438114E-02 -4.420432E-02
      12     1  6.000000E-03 -1.000000E-01 -3.500000E-01  0.000000E+00 -2.455796E-02  2.455796E-02 -4.420432E-02
      13     1  1.200000E-02 -5.000000E-02 -3.500000E-01  5.000000E-02 -2.455796E-02  3.438114E-02 -4.420432E-02
      14     1  6.000000E-03 -1.500000E-01 -3.000000E-01  0.000000E+00 -1.473477E-02  1.473477E-02 -4.420432E-02
      15     1  1.200000E-02 -1.000000E-01 -3.000000E-01  5.000000E-02 -1.473477E-02  2.455796E-02 -4.420432E-02
      16     1  1.200000E-02 -5.000000E-02 -3.000000E-01  1.000000E-01 -1.473477E-02  3.438114E-02 -4.420432E-02
      17     1  6.000000E-03 -2.000000E-01 -2.500000E-01  0.000000E+00 -4.911591E-03  4.911591E-03 -4.420432E-02
      18     1  1.200000E-02 -1.500000E-01 -2.500000E-01  5.000000E-02 -4.911591E-03  1.473477E-02 -4.420432E-02
      19     1  1.200000E-02 -1.000000E-01 -2.500000E-01  1.000000E-01 -4.911591E-03  2.455796E-02 -4.420432E-02
      20     1  1.200000E-02 -5.000000E-02 -2.500000E-01  1.500000E-01 -4.911591E-03  3.438114E-02 -4.420432E-02
      21     1  6.000000E-03 -5.000000E-02  5.000000E-01  0.000000E+00  5.402750E-02 -5.402750E-02  4.420432E-02
      22     1  6.000000E-03 -1.000000E-01 -4.500000E-01  0.000000E+00 -3.438114E-02  3.438114E-02 -5.402750E-02
      23     1  1.200000E-02 -5.000000E-02 -4.500000E-01  5.000000E-02 -3.438114E-02  4.420432E-02 -5.402750E-02
      24     1  6.000000E-03 -1.500000E-01 -4.000000E-01  0.000000E+00 -2.455796E-02  2.455796E-02 -5.402750E-02
      25     1  1.200000E-02 -1.000000E-01 -4.000000E-01  5.000000E-02 -2.455796E-02  3.438114E-02 -5.402750E-02
      26     1  1.200000E-02 -5.000000E-02 -4.000000E-01  1.000000E-01 -2.455796E-02  4.420432E-02 -5.402750E-02
      27     1  6.000000E-03 -2.000000E-01 -3.500000E-01  0.000000E+00 -1.473477E-02  1.473477E-02 -5.402750E-02
      28     1  1.200000E-02 -1.500000E-01 -3.500000E-01  5.000000E-02 -1.473477E-02  2.455796E-02 -5.402750E-02
      29     1  1.200000E-02 -1.000000E-01 -3.500000E-01  1.000000E-01 -1.473477E-02  3.438114E-02 -5.402750E-02
      30     1  1.200000E-02 -5.000000E-02 -3.500000E-01  1.500000E-01 -1.473477E-02  4.420432E-02 -5.402750E-02
      31     1  6.000000E-03 -2.500000E-01 -3.000000E-01  0.000000E+00 -4.911591E-03  4.911591E-03 -5.402750E-02
      32     1  1.200000E-02 -2.000000E-01 -3.000000E-01  5.000000E-02 -4.911591E-03  1.473477E-02 -5.402750E-02
      33     1  1.200000E-02 -1.500000E-01 -3.000000E-01  1.000000E-01 -4.911591E-03  2.455796E-02 -5.402750E-02
      34     1  1.200000E-02 -1.000000E-01 -3.000000E-01  1.500000E-01 -4.911591E-03  3.438114E-02 -5.402750E-02
      35     1  1.200000E-02 -5.000000E-02 -3.000000E-01  2.000000E-01 -4.911591E-03  4.420432E-02 -5.402750E-02
      36     1  6.000000E-03 -5.000000E-02  4.000000E-01  0.000000E+00  4.420432E-02 -4.420432E-02  3.438114E-02
      37     1  6.000000E-03 -1.000000E-01  4.500000E-01  0.000000E+00  5.402750E-02 -5.402750E-02  3.438114E-02
      38     1  6.000000E-03 -1.500000E-01  5.000000E-01  0.000000E+00  6.385069E-02 -6.385069E-02  3.438114E-02
      39     1  1.200000E-02 -1.000000E-01  5.000000E-01  5.000000E-02  6.385069E-02 -5.402750E-02  3.438114E-02
      40     1  6.000000E-03 -2.000000E-01 -4.500000E-01  0.000000E+00 -2.455796E-02  2.455796E-02 -6.385069E-02
      41     1  1.200000E-02 -1.500000E-01 -4.500000E-01  5.000000E-02 -2.455796E-02  3.438114E-02 -6.385069E-02
      42     1  1.200000E-02 -1.000000E-01 -4.500000E-01  1.000000E-01 -2.455796E-02  4.420432E-02 -6.385069E-02
      43     1  1.200000E-02 -5.000000E-02 -4.500000E-01  1.500000E-01 -2.455796E-02  5.402750E-02 -6.385069E-02
      44     1  6.000000E-03 -2.500000E-01 -4.000000E-01  0.000000E+00 -1.473477E-02  1.473477E-02 -6.385069E-02
      45     1  1.200000E-02 -2.000000E-01 -4.000000E-01  5.000000E-02 -1.473477E-02  2.455796E-02 -6.385069E-02
      46     1  1.200000E-02 -1.500000E-01 -4.000000E-01  1.000000E-01 -1.473477E-02  3.438114E-02 -6.385069E-02
      47     1  1.200000E-02 -1.000000E-01 -4.000000E-01  1.500000E-01 -1.473477E-02  4.420432E-02 -6.385069E-02
      48     1  1.200000E-02 -5.000000E-02 -4.000000E-01  2.000000E-01 -1.473477E-02  5.402750E-02 -6.385069E-02
      49     1  6.000000E-03 -3.000000E-01 -3.500000E-01  0.000000E+00 -4.911591E-03  4.911591E-03 -6.385069E-02
      50     1  1.200000E-02 -2.500000E-01 -3.500000E-01  5.000000E-02 -4.911591E-03  1.473477E-02 -6.385069E-02
      51     1  1.200000E-02 -2.000000E-01 -3.500000E-01  1.000000E-01 -4.911591E-03  2.455796E-02 -6.385069E-02
      52     1  1.200000E-02 -1.500000E-01 -3.500000E-01  1.500000E-01 -4.911591E-03  3.438114E-02 -6.385069E-02
      53     1  1.200000E-02 -1.000000E-01 -3.500000E-01  2.000000E-01 -4.911591E-03  4.420432E-02 -6.385069E-02
      54     1  1.200000E-02 -5.000000E-02 -3.500000E-01  2.500000E-01 -4.911591E-03  5.402750E-02 -6.385069E-02
      55     1  6.000000E-03 -5.000000E-02  3.000000E-01  0.000000E+00  3.438114E-02 -3.438114E-02  2.455796E-02
      56     1  6.000000E-03 -1.000000E-01  3.500000E-01  0.000000E+00  4.420432E-02 -4.420432E-02  2.455796E-02
      57     1  6.000000E-03 -1.500000E-01  4.000000E-01  0.000000E+00  5.402750E-02 -5.402750E-02  2.455796E-02
      58     1  6.000000E-03 -2.000000E-01  4.500000E-01  0.000000E+00  6.385069E-02 -6.385069E-02  2.455796E-02
      59     1  6.000000E-03 -2.500000E-01  5.000000E-01  0.000000E+00  7.367387E-02 -7.367387E-02  2.455796E-02
      60     1  1.200000E-02 -2.000000E-01  5.000000E-01  5.000000E-02  7.367387E-02 -6.385069E-02  2.455796E-02
[...]
      86     1  1.200000E-02 -3.500000E-01 -4.500000E-01  5.000000E-02 -4.911591E-03  1.473477E-02 -8.349705E-02
      87     1  1.200000E-02 -3.000000E-01 -4.500000E-01  1.000000E-01 -4.911591E-03  2.455796E-02 -8.349705E-02
      88     1  1.200000E-02 -2.500000E-01 -4.500000E-01  1.500000E-01 -4.911591E-03  3.438114E-02 -8.349705E-02
      89     1  1.200000E-02 -2.000000E-01 -4.500000E-01  2.000000E-01 -4.911591E-03  4.420432E-02 -8.349705E-02
      90     1  1.200000E-02 -1.500000E-01 -4.500000E-01  2.500000E-01 -4.911591E-03  5.402750E-02 -8.349705E-02
      91     1  1.200000E-02 -1.000000E-01 -4.500000E-01  3.000000E-01 -4.911591E-03  6.385069E-02 -8.349705E-02
      92     1  1.200000E-02 -5.000000E-02 -4.500000E-01  3.500000E-01 -4.911591E-03  7.367387E-02 -8.349705E-02
[...]
  -0.18986    0.08680    0.14307    0.16492    0.28350
 kpt#  19, nband=  5, wtk=  0.01200, kpt= -0.1000 -0.2500  0.1000 (reduced coord)
  -0.18381    0.06818    0.12639    0.17566    0.31014
 kpt#  20, nband=  5, wtk=  0.01200, kpt= -0.0500 -0.2500  0.1500 (reduced coord)
  -0.17485    0.04878    0.10919    0.18151    0.32839
 kpt#  21, nband=  5, wtk=  0.00600, kpt= -0.0500  0.5000  0.0000 (reduced coord)
  -0.13827   -0.04057    0.16467    0.17131    0.28027
 kpt#  22, nband=  5, wtk=  0.00600, kpt= -0.1000 -0.4500  0.0000 (reduced coord)
  -0.14717   -0.02080    0.14911    0.16303    0.29530
 kpt#  23, nband=  5, wtk=  0.01200, kpt= -0.0500 -0.4500  0.0500 (reduced coord)
  -0.14065   -0.03286    0.14917    0.16876    0.29332
 kpt#  24, nband=  5, wtk=  0.00600, kpt= -0.1500 -0.4000  0.0000 (reduced coord)
  -0.16050    0.01287    0.13613    0.15346    0.29272
 kpt#  25, nband=  5, wtk=  0.01200, kpt= -0.1000 -0.4000  0.0500 (reduced coord)
  -0.15312   -0.00452    0.13392    0.16114    0.30266
 kpt#  26, nband=  5, wtk=  0.01200, kpt= -0.0500 -0.4000  0.1000 (reduced coord)
  -0.14409   -0.01918    0.12479    0.16669    0.30799
 kpt#  27, nband=  5, wtk=  0.00600, kpt= -0.2000 -0.3500  0.0000 (reduced coord)
  -0.17122    0.04786    0.13142    0.14571    0.27765
 kpt#  28, nband=  5, wtk=  0.01200, kpt= -0.1500 -0.3500  0.0500 (reduced coord)
  -0.16565    0.03103    0.12480    0.15268    0.29271
 kpt#  29, nband=  5, wtk=  0.01200, kpt= -0.1000 -0.3500  0.1000 (reduced coord)
  -0.15752    0.01366    0.11266    0.16074    0.31641
 kpt#  30, nband=  5, wtk=  0.01200, kpt= -0.0500 -0.3500  0.1500 (reduced coord)
  -0.14713   -0.00231    0.09955    0.16489    0.31298
 kpt#  31, nband=  5, wtk=  0.00600, kpt= -0.2500 -0.3000  0.0000 (reduced coord)
  -0.17695    0.06917    0.13843    0.14148    0.25537
 kpt#  32, nband=  5, wtk=  0.01200, kpt= -0.2000 -0.3000  0.0500 (reduced coord)
  -0.17404    0.05979    0.12791    0.14620    0.27191
 kpt#  33, nband=  5, wtk=  0.01200, kpt= -0.1500 -0.3000  0.1000 (reduced coord)
  -0.16829    0.04514    0.11190    0.15355    0.29905
 kpt#  34, nband=  5, wtk=  0.01200, kpt= -0.1000 -0.3000  0.1500 (reduced coord)
  -0.15983    0.02867    0.09539    0.16038    0.33217
 kpt#  35, nband=  5, wtk=  0.01200, kpt= -0.0500 -0.3000  0.2000 (reduced coord)
  -0.14886    0.01221    0.08059    0.16385    0.31285
 kpt#  36, nband=  5, wtk=  0.00600, kpt= -0.0500  0.4000  0.0000 (reduced coord)
  -0.15042   -0.02233    0.16316    0.17672    0.28217
 kpt#  37, nband=  5, wtk=  0.00600, kpt= -0.1000  0.4500  0.0000 (reduced coord)
  -0.13503   -0.03883    0.14110    0.16757    0.29482
 kpt#  38, nband=  5, wtk=  0.00600, kpt= -0.1500  0.5000  0.0000 (reduced coord)
  -0.13413   -0.03015    0.12152    0.15532    0.29302
 kpt#  39, nband=  5, wtk=  0.01200, kpt= -0.1000  0.5000  0.0500 (reduced coord)
  -0.13177   -0.03736    0.12723    0.15946    0.30281
 kpt#  40, nband=  5, wtk=  0.00600, kpt= -0.2000 -0.4500  0.0000 (reduced coord)
  -0.14341   -0.00335    0.10937    0.14361    0.28064
 kpt#  41, nband=  5, wtk=  0.01200, kpt= -0.1500 -0.4500  0.0500 (reduced coord)
  -0.13753   -0.01760    0.11078    0.14785    0.29434
 kpt#  42, nband=  5, wtk=  0.01200, kpt= -0.1000 -0.4500  0.1000 (reduced coord)
  -0.13107   -0.02878    0.10782    0.15097    0.31751
 kpt#  43, nband=  5, wtk=  0.01200, kpt= -0.0500 -0.4500  0.1500 (reduced coord)
  -0.12544   -0.03482    0.10146    0.15257    0.30041
 kpt#  44, nband=  5, wtk=  0.00600, kpt= -0.2500 -0.4000  0.0000 (reduced coord)
  -0.15276    0.02379    0.11067    0.13480    0.26602
 kpt#  45, nband=  5, wtk=  0.01200, kpt= -0.2000 -0.4000  0.0500 (reduced coord)
  -0.14774    0.01123    0.10477    0.13765    0.28065
 kpt#  46, nband=  5, wtk=  0.01200, kpt= -0.1500 -0.4000  0.1000 (reduced coord)
  -0.14055   -0.00280    0.09651    0.14088    0.30646
 kpt#  47, nband=  5, wtk=  0.01200, kpt= -0.1000 -0.4000  0.1500 (reduced coord)
  -0.13173   -0.01590    0.08664    0.14516    0.32469
 kpt#  48, nband=  5, wtk=  0.01200, kpt= -0.0500 -0.4000  0.2000 (reduced coord)
  -0.12216   -0.02643    0.07720    0.14796    0.29555
 kpt#  49, nband=  5, wtk=  0.00600, kpt= -0.3000 -0.3500  0.0000 (reduced coord)
  -0.15804    0.03711    0.12571    0.13013    0.24649
 kpt#  50, nband=  5, wtk=  0.01200, kpt= -0.2500 -0.3500  0.0500 (reduced coord)
  -0.15533    0.03153    0.11497    0.13104    0.26259
 prteigrs : prtvol=0 or 1, do not print more k-points.

 Total charge density [el/Bohr^3]
      Maximum=    8.6238E-02  at reduced coord.    0.1000    0.1000    0.7000
 Next maximum=    8.6238E-02  at reduced coord.    0.1000    0.7000    0.1000
      Minimum=    3.5706E-03  at reduced coord.    0.5000    0.5000    0.5000
 Next minimum=    3.5874E-03  at reduced coord.    0.7600    0.7400    0.7400
   Integrated=    8.0000E+00

 Cartesian components of stress tensor (hartree/bohr^3)
  sigma(1 1)= -7.61896893E-10  sigma(3 2)=  0.00000000E+00
  sigma(2 2)= -7.61896893E-10  sigma(3 1)=  0.00000000E+00
  sigma(3 3)= -7.61896893E-10  sigma(2 1)=  0.00000000E+00

-Cartesian components of stress tensor (GPa)         [Pressure=  2.2416E-05 GPa]
- sigma(1 1)= -2.24157767E-05  sigma(3 2)=  0.00000000E+00
- sigma(2 2)= -2.24157767E-05  sigma(3 1)=  0.00000000E+00
- sigma(3 3)= -2.24157767E-05  sigma(2 1)=  0.00000000E+00

== END DATASET(S) ==============================================================

 -outvars: echo values of variables after computation  --------
            acell      1.0200645510E+01  1.0200645510E+01  1.0200645510E+01 Bohr
              amu      2.80855000E+01
           diemac      1.20000000E+01
          dilatmx      1.05000000E+00
             ecut      5.00000000E+01 Hartree
           ecutsm      5.00000000E-01 Hartree
           etotal1    -8.8771365598E+00
            fcart1    -5.3570190469E-32  5.3570190469E-32 -5.3570190469E-32
                       5.3570190469E-32 -5.3570190469E-32  5.3570190469E-32
-          fftalg         112
           getwfk          -1
           ionmov           3
           jdtset        1
              kpt     -5.00000000E-02 -1.00000000E-01  0.00000000E+00
                      -5.00000000E-02 -2.00000000E-01  0.00000000E+00
                      -1.00000000E-01 -1.50000000E-01  0.00000000E+00
                      -5.00000000E-02 -1.50000000E-01  5.00000000E-02
                      -5.00000000E-02 -3.00000000E-01  0.00000000E+00
                      -1.00000000E-01 -2.50000000E-01  0.00000000E+00
                      -5.00000000E-02 -2.50000000E-01  5.00000000E-02
                      -1.50000000E-01 -2.00000000E-01  0.00000000E+00
                      -1.00000000E-01 -2.00000000E-01  5.00000000E-02
                      -5.00000000E-02 -2.00000000E-01  1.00000000E-01
                      -5.00000000E-02 -4.00000000E-01  0.00000000E+00
                      -1.00000000E-01 -3.50000000E-01  0.00000000E+00
                      -5.00000000E-02 -3.50000000E-01  5.00000000E-02
                      -1.50000000E-01 -3.00000000E-01  0.00000000E+00
                      -1.00000000E-01 -3.00000000E-01  5.00000000E-02
                      -5.00000000E-02 -3.00000000E-01  1.00000000E-01
                      -2.00000000E-01 -2.50000000E-01  0.00000000E+00
                      -1.50000000E-01 -2.50000000E-01  5.00000000E-02
                      -1.00000000E-01 -2.50000000E-01  1.00000000E-01
                      -5.00000000E-02 -2.50000000E-01  1.50000000E-01
                      -5.00000000E-02  5.00000000E-01  0.00000000E+00
                      -1.00000000E-01 -4.50000000E-01  0.00000000E+00
                      -5.00000000E-02 -4.50000000E-01  5.00000000E-02
                      -1.50000000E-01 -4.00000000E-01  0.00000000E+00
                      -1.00000000E-01 -4.00000000E-01  5.00000000E-02
                      -5.00000000E-02 -4.00000000E-01  1.00000000E-01
                      -2.00000000E-01 -3.50000000E-01  0.00000000E+00
                      -1.50000000E-01 -3.50000000E-01  5.00000000E-02
                      -1.00000000E-01 -3.50000000E-01  1.00000000E-01
                      -5.00000000E-02 -3.50000000E-01  1.50000000E-01
                      -2.50000000E-01 -3.00000000E-01  0.00000000E+00
                      -2.00000000E-01 -3.00000000E-01  5.00000000E-02
                      -1.50000000E-01 -3.00000000E-01  1.00000000E-01
                      -1.00000000E-01 -3.00000000E-01  1.50000000E-01
                      -5.00000000E-02 -3.00000000E-01  2.00000000E-01
                      -5.00000000E-02  4.00000000E-01  0.00000000E+00
                      -1.00000000E-01  4.50000000E-01  0.00000000E+00
                      -1.50000000E-01  5.00000000E-01  0.00000000E+00
                      -1.00000000E-01  5.00000000E-01  5.00000000E-02
                      -2.00000000E-01 -4.50000000E-01  0.00000000E+00
                      -1.50000000E-01 -4.50000000E-01  5.00000000E-02
                      -1.00000000E-01 -4.50000000E-01  1.00000000E-01
                      -5.00000000E-02 -4.50000000E-01  1.50000000E-01
                      -2.50000000E-01 -4.00000000E-01  0.00000000E+00
                      -2.00000000E-01 -4.00000000E-01  5.00000000E-02
                      -1.50000000E-01 -4.00000000E-01  1.00000000E-01
                      -1.00000000E-01 -4.00000000E-01  1.50000000E-01
                      -5.00000000E-02 -4.00000000E-01  2.00000000E-01
                      -3.00000000E-01 -3.50000000E-01  0.00000000E+00
                      -2.50000000E-01 -3.50000000E-01  5.00000000E-02
                       outvar_i_n : Printing only first  50 k-points.
         kptrlatt       10  -10   10    -10   10   10    -10  -10   10
          kptrlen      1.01800000E+02
P           mkmem         110
            natom           2
            nband           5
           ndtset           1
            ngfft          50      50      50
             nkpt         110
            nstep          10
             nsym          48
            ntime          10
           ntypat           1
              occ      2.000000  2.000000  2.000000  2.000000  0.000000
          optcell           1
            rprim      0.0000000000E+00  5.0000000000E-01  5.0000000000E-01
                       5.0000000000E-01  0.0000000000E+00  5.0000000000E-01
                       5.0000000000E-01  5.0000000000E-01  0.0000000000E+00
           shiftk      5.00000000E-01  5.00000000E-01  5.00000000E-01
          spgroup         227
           strten1    -7.6189689285E-10 -7.6189689274E-10 -7.6189689285E-10
                       0.0000000000E+00  0.0000000000E+00  0.0000000000E+00
           symrel      1  0  0   0  1  0   0  0  1      -1  0  0   0 -1  0   0  0 -1
                       0 -1  1   0 -1  0   1 -1  0       0  1 -1   0  1  0  -1  1  0
                      -1  0  0  -1  0  1  -1  1  0       1  0  0   1  0 -1   1 -1  0
                       0  1 -1   1  0 -1   0  0 -1       0 -1  1  -1  0  1   0  0  1
                      -1  0  0  -1  1  0  -1  0  1       1  0  0   1 -1  0   1  0 -1
                       0 -1  1   1 -1  0   0 -1  0       0  1 -1  -1  1  0   0  1  0
                       1  0  0   0  0  1   0  1  0      -1  0  0   0  0 -1   0 -1  0
                       0  1 -1   0  0 -1   1  0 -1       0 -1  1   0  0  1  -1  0  1
                      -1  0  1  -1  1  0  -1  0  0       1  0 -1   1 -1  0   1  0  0
                       0 -1  0   1 -1  0   0 -1  1       0  1  0  -1  1  0   0  1 -1
                       1  0 -1   0  0 -1   0  1 -1      -1  0  1   0  0  1   0 -1  1
                       0  1  0   0  0  1   1  0  0       0 -1  0   0  0 -1  -1  0  0
                       1  0 -1   0  1 -1   0  0 -1      -1  0  1   0 -1  1   0  0  1
                       0 -1  0   0 -1  1   1 -1  0       0  1  0   0  1 -1  -1  1  0
                      -1  0  1  -1  0  0  -1  1  0       1  0 -1   1  0  0   1 -1  0
                       0  1  0   1  0  0   0  0  1       0 -1  0  -1  0  0   0  0 -1
                       0  0 -1   0  1 -1   1  0 -1       0  0  1   0 -1  1  -1  0  1
                       1 -1  0   0 -1  1   0 -1  0      -1  1  0   0  1 -1   0  1  0
                       0  0  1   1  0  0   0  1  0       0  0 -1  -1  0  0   0 -1  0
                      -1  1  0  -1  0  0  -1  0  1       1 -1  0   1  0  0   1  0 -1
                       0  0  1   0  1  0   1  0  0       0  0 -1   0 -1  0  -1  0  0
                       1 -1  0   0 -1  0   0 -1  1      -1  1  0   0  1  0   0  1 -1
                       0  0 -1   1  0 -1   0  1 -1       0  0  1  -1  0  1   0 -1  1
                      -1  1  0  -1  0  1  -1  0  0       1 -1  0   1  0 -1   1  0  0
            tnons      0.0000000  0.0000000  0.0000000     0.2500000  0.2500000  0.2500000
                       0.0000000  0.0000000  0.0000000     0.2500000  0.2500000  0.2500000
                       0.0000000  0.0000000  0.0000000     0.2500000  0.2500000  0.2500000
                       0.0000000  0.0000000  0.0000000     0.2500000  0.2500000  0.2500000
                       0.0000000  0.0000000  0.0000000     0.2500000  0.2500000  0.2500000
                       0.0000000  0.0000000  0.0000000     0.2500000  0.2500000  0.2500000
                       0.0000000  0.0000000  0.0000000     0.2500000  0.2500000  0.2500000
                       0.0000000  0.0000000  0.0000000     0.2500000  0.2500000  0.2500000
                       0.0000000  0.0000000  0.0000000     0.2500000  0.2500000  0.2500000
                       0.0000000  0.0000000  0.0000000     0.2500000  0.2500000  0.2500000
                       0.0000000  0.0000000  0.0000000     0.2500000  0.2500000  0.2500000
                       0.0000000  0.0000000  0.0000000     0.2500000  0.2500000  0.2500000
                       0.0000000  0.0000000  0.0000000     0.2500000  0.2500000  0.2500000
                       0.0000000  0.0000000  0.0000000     0.2500000  0.2500000  0.2500000
                       0.0000000  0.0000000  0.0000000     0.2500000  0.2500000  0.2500000
                       0.0000000  0.0000000  0.0000000     0.2500000  0.2500000  0.2500000
                       0.0000000  0.0000000  0.0000000     0.2500000  0.2500000  0.2500000
                       0.0000000  0.0000000  0.0000000     0.2500000  0.2500000  0.2500000
                       0.0000000  0.0000000  0.0000000     0.2500000  0.2500000  0.2500000
                       0.0000000  0.0000000  0.0000000     0.2500000  0.2500000  0.2500000
                       0.0000000  0.0000000  0.0000000     0.2500000  0.2500000  0.2500000
                       0.0000000  0.0000000  0.0000000     0.2500000  0.2500000  0.2500000
                       0.0000000  0.0000000  0.0000000     0.2500000  0.2500000  0.2500000
                       0.0000000  0.0000000  0.0000000     0.2500000  0.2500000  0.2500000
           toldfe      1.00000000E-06 Hartree
            typat      1  1
              wtk        0.00600    0.00600    0.00600    0.01200    0.00600    0.00600
                         0.01200    0.00600    0.01200    0.01200    0.00600    0.00600
                         0.01200    0.00600    0.01200    0.01200    0.00600    0.01200
                         0.01200    0.01200    0.00600    0.00600    0.01200    0.00600
                         0.01200    0.01200    0.00600    0.01200    0.01200    0.01200
                         0.00600    0.01200    0.01200    0.01200    0.01200    0.00600
                         0.00600    0.00600    0.01200    0.00600    0.01200    0.01200
                         0.01200    0.00600    0.01200    0.01200    0.01200    0.01200
                         0.00600    0.01200
                       outvars : Printing only first  50 k-points.
           xangst      5.9991780647E-32 -5.9693074161E-32  2.0096829044E-32
                       1.3494872792E+00  1.3494872792E+00  1.3494872792E+00
            xcart      1.1336803565E-31 -1.1280356219E-31  3.7977503034E-32
                       2.5501613776E+00  2.5501613776E+00  2.5501613776E+00
             xred     -1.8449233886E-32  2.5895331880E-32 -3.6677119642E-33
                       2.5000000000E-01  2.5000000000E-01  2.5000000000E-01
            znucl       14.00000

 Suggested references for the acknowledgment of ABINIT usage.

 Calculation completed.
.Delivered   0 WARNINGs and   0 COMMENTs to log file.

--- !FinalSummary
program: abinit
version: 8.0.7
start_datetime: Thu Apr 26 11:54:32 2018
end_datetime: Thu Apr 26 11:59:48 2018
overall_cpu_time:         309.1
overall_wall_time:         316.7
exit_requested_by_user: no
timelimit: 0
pseudos:
    Si  : 3916b143991b1cfa1542b130be320e5e
usepaw: 0
mpi_procs: 1
omp_threads: 1
num_warnings: 0
num_comments: 0
...